&BANDS
  prefix = 'aiida'
  outdir = './out/'
  filband = 'NbP_bands.dat'
/
