Supercell NbP 1x1x7 + SOC               
   1.00000000000000     
     3.3583631515999999    0.0000000000000000    0.0000000000000000
     0.0000000000000000    3.3583631515999999    0.0000000000000000
     0.0000000000000000    0.0000000000000000   90.2924575806000007
   H    Nb   P 
     1    28    28
Selective dynamics
Direct
  0.4999904902202689  0.9707896206418802  0.9006110337693147   T   T   T
  0.4999999594273871  0.4702789012537817  0.8876333646494545   F   F   F
  0.0000727055994906  0.4706223810357028  0.8565007699517335   F   F   F
  0.0001037786532551  0.9718122126054587  0.8247277789038195   F   F   F
  0.5000942457845402 -0.0272195368382623  0.7930908660582640   F   F   F
  0.5000480606195037  0.4762541592146329  0.7614116189018820   F   F   F
 -0.0001367983059835  0.4780863897399153  0.7297300016106451   F   F   F
 -0.0001354709093942 -0.0167199027756428  0.6980427018756006   F   F   F
  0.5000993767938104 -0.0156028605480253  0.6663471518213763   F   F   F
  0.5001480498618061  0.4856125738843977  0.6346620764502628   F   F   F
  0.0000150811564879  0.4867249985736115  0.6029883884049368   F   F   F
 -0.0000428755897580 -0.0083041376867487  0.5713150296910048   F   F   F
  0.4999056749427271 -0.0062258896252680  0.5396330412277387   F   F   F
  0.4999074164245472  0.4977791647102347  0.5079722198335042   F   F   F
 -0.0000412713153894  0.4988876275117826  0.4762952774753370   F   F   F
 -0.0000236545760687 -0.0002528666092877  0.4446218595683443   F   F   F
  0.4999942498285769 -0.0000942896591013  0.4129467064003225   F   F   F
  0.4999980074735579  0.4999972471113933  0.3812778044746403   F   F   F
 -0.0000001591277678  0.5000139043346282  0.3495972677643329   F   F   F
  0.0000000245203217  0.0000289690618186  0.3179165209857048   F   F   F
  0.4999998937864899  0.0000326811026589  0.2862653043011175   F   F   F
  0.4999998569714862  0.5000374965140802  0.2546195244306438   F   F   F
 -0.0000000480941598  0.5000385838341239  0.2229666943928924   F   F   F
  0.0000000379430374  0.0000381469542928  0.1913280333293736   F   F   F
  0.5000003799249476  0.0000370094331435  0.1596814601275777   F   F   F
  0.5000005315596735  0.5000344850733456  0.1280295452179030   F   F   F
  0.0000009007223010  0.5000335581626459  0.0963570904254894   F   F   F
  0.0000010167797361  0.0000329515917983  0.0646332389802117   F   F   F
  0.5000010913052576  0.0000328081479396  0.0325500021355026   F   F   F
 -0.0000005194336015  0.9705301691566212  0.8775594218567118   F   F   F
  0.5000913321650688 -0.0291730896816643  0.8458875995972199   F   F   F
  0.5001144493768837  0.4719311076764776  0.8142743194693357   F   F   F
  0.0000904204000064  0.4731142284377435  0.7826229623828588   F   F   F
  0.0000272440000760 -0.0232946042703563  0.7509432097563576   F   F   F
  0.4998457363880852 -0.0213131037388866  0.7192615518387918   F   F   F
  0.4998753041459403  0.4838053934346135  0.6875726163605239   F   F   F
  0.0001265451173753  0.4846021926144219  0.6558762749001968   F   F   F
  0.0001531113788135 -0.0142349811534633  0.6241978209911049   F   F   F
  0.4999959142007790 -0.0129004331961313  0.5925299670607681   F   F   F
  0.4999423967363407  0.4923295911055349  0.5608457003020746   F   F   F
 -0.0000976405351052  0.4943257039026559  0.5291773077292884   F   F   F
 -0.0000896648742147 -0.0017805580113876  0.4975119322206702   F   F   F
  0.4999650672534103 -0.0008721921030533  0.4658306822735700   F   F   F
  0.4999804048394619  0.4998218663043704  0.4341567490028232   F   F   F
 -0.0000040538433582  0.4999361365326724  0.4024872035754192   F   F   F
 -0.0000012687209463  0.0000050864627013  0.3708162611901533   F   F   F
  0.4999999644434623  0.0000176952815622  0.3391267872321003   F   F   F
  0.5000000491136908  0.5000303906841680  0.3074618828397496   F   F   F
 -0.0000001246775948  0.5000335086416308  0.2758203918808837   F   F   F
 -0.0000001514718314  0.0000378484480085  0.2441649208899701   F   F   F
  0.4999999641218100  0.0000388356423847  0.2125151541199359   F   F   F
  0.5000000642307587  0.5000377614928474  0.1808709741487218   F   F   F
  0.0000004258033408  0.5000366579597206  0.1492094283791857   F   F   F
  0.0000005771789243  0.0000340944362962  0.1175352453919309   F   F   F
  0.5000009383374915  0.0000333608466218  0.0858135679784392   F   F   F
  0.5000010304350970  0.5000328766714379  0.0540384713064361   F   F   F
  0.0000011000001775  0.5000329959363923  0.0224393191299746   F   F   F
 
  0.00000000E+00  0.00000000E+00  0.00000000E+00
  0.00000000E+00  0.00000000E+00  0.00000000E+00
  0.00000000E+00  0.00000000E+00  0.00000000E+00
  0.00000000E+00  0.00000000E+00  0.00000000E+00
  0.00000000E+00  0.00000000E+00  0.00000000E+00
  0.00000000E+00  0.00000000E+00  0.00000000E+00
  0.00000000E+00  0.00000000E+00  0.00000000E+00
  0.00000000E+00  0.00000000E+00  0.00000000E+00
  0.00000000E+00  0.00000000E+00  0.00000000E+00
  0.00000000E+00  0.00000000E+00  0.00000000E+00
  0.00000000E+00  0.00000000E+00  0.00000000E+00
  0.00000000E+00  0.00000000E+00  0.00000000E+00
  0.00000000E+00  0.00000000E+00  0.00000000E+00
  0.00000000E+00  0.00000000E+00  0.00000000E+00
  0.00000000E+00  0.00000000E+00  0.00000000E+00
  0.00000000E+00  0.00000000E+00  0.00000000E+00
  0.00000000E+00  0.00000000E+00  0.00000000E+00
  0.00000000E+00  0.00000000E+00  0.00000000E+00
  0.00000000E+00  0.00000000E+00  0.00000000E+00
  0.00000000E+00  0.00000000E+00  0.00000000E+00
  0.00000000E+00  0.00000000E+00  0.00000000E+00
  0.00000000E+00  0.00000000E+00  0.00000000E+00
  0.00000000E+00  0.00000000E+00  0.00000000E+00
  0.00000000E+00  0.00000000E+00  0.00000000E+00
  0.00000000E+00  0.00000000E+00  0.00000000E+00
  0.00000000E+00  0.00000000E+00  0.00000000E+00
  0.00000000E+00  0.00000000E+00  0.00000000E+00
  0.00000000E+00  0.00000000E+00  0.00000000E+00
  0.00000000E+00  0.00000000E+00  0.00000000E+00
  0.00000000E+00  0.00000000E+00  0.00000000E+00
  0.00000000E+00  0.00000000E+00  0.00000000E+00
  0.00000000E+00  0.00000000E+00  0.00000000E+00
  0.00000000E+00  0.00000000E+00  0.00000000E+00
  0.00000000E+00  0.00000000E+00  0.00000000E+00
  0.00000000E+00  0.00000000E+00  0.00000000E+00
  0.00000000E+00  0.00000000E+00  0.00000000E+00
  0.00000000E+00  0.00000000E+00  0.00000000E+00
  0.00000000E+00  0.00000000E+00  0.00000000E+00
  0.00000000E+00  0.00000000E+00  0.00000000E+00
  0.00000000E+00  0.00000000E+00  0.00000000E+00
  0.00000000E+00  0.00000000E+00  0.00000000E+00
  0.00000000E+00  0.00000000E+00  0.00000000E+00
  0.00000000E+00  0.00000000E+00  0.00000000E+00
  0.00000000E+00  0.00000000E+00  0.00000000E+00
  0.00000000E+00  0.00000000E+00  0.00000000E+00
  0.00000000E+00  0.00000000E+00  0.00000000E+00
  0.00000000E+00  0.00000000E+00  0.00000000E+00
  0.00000000E+00  0.00000000E+00  0.00000000E+00
  0.00000000E+00  0.00000000E+00  0.00000000E+00
  0.00000000E+00  0.00000000E+00  0.00000000E+00
  0.00000000E+00  0.00000000E+00  0.00000000E+00
  0.00000000E+00  0.00000000E+00  0.00000000E+00
  0.00000000E+00  0.00000000E+00  0.00000000E+00
  0.00000000E+00  0.00000000E+00  0.00000000E+00
  0.00000000E+00  0.00000000E+00  0.00000000E+00
  0.00000000E+00  0.00000000E+00  0.00000000E+00
  0.00000000E+00  0.00000000E+00  0.00000000E+00
