Supercell NbP 1x1x7 + SOC
1.0
        3.3583631516         0.0000000000         0.0000000000
        0.0000000000         3.3583631516         0.0000000000
        0.0000000000         0.0000000000        90.2924575806
   Nb    P
   28   28
Selective dynamics
Cartesian
     1.679181576         1.679181576        80.291438204   T   T   T
     0.000000000         1.679181576        77.423851801   T   T   T
     0.000000000         0.000000000        74.556265398   T   T   T
     1.679181576         0.000000000        71.688678994   T   T   T
     1.679181576         1.679181576        68.821087805   T   T   T
     0.000000000         1.679181576        65.953501402   T   T   T
     0.000000000         0.000000000        63.085914998   T   T   T
     1.679181576         0.000000000        60.218328595   T   T   T
     1.679181576         1.679181576        57.350737406   T   T   T
     0.000000000         1.679181576        54.483151003   T   T   T
     0.000000000         0.000000000        51.615564599   T   T   T
     1.679181576         0.000000000        48.747973410   T   T   T
     1.679181576         1.679181576        45.880387007   T   T   T
     0.000000000         1.679181576        43.012800603   T   T   T
     0.000000000         0.000000000        40.145211807   T   T   T
     1.679181576         0.000000000        37.277623011   T   T   T
     1.679181576         1.679181576        34.410036607   T   T   T
     0.000000000         1.679181576        31.542447811   T   T   T
     0.000000000         0.000000000        28.674861408   T   T   T
     1.679181576         0.000000000        25.807272612   T   T   T
     1.679181576         1.679181576        22.939683815   F   F   F
     0.000000000         1.679181576        20.072097412   F   F   F
     0.000000000         0.000000000        17.204509812   F   F   F
     1.679181576         0.000000000        14.336922212   F   F   F
     1.679181576         1.679181576        11.469333416   F   F   F
     0.000000000         1.679181576         8.601745816   F   F   F
     0.000000000         0.000000000         5.734158815   F   F   F
     1.679181576         0.000000000         2.866570916   F   F   F
     0.000000000         0.000000000        79.345677306   T   T   T
     1.679181576         0.000000000        76.478090902   T   T   T
     1.679181576         1.679181576        73.610504499   T   T   T
     0.000000000         1.679181576        70.742918096   T   T   T
     0.000000000         0.000000000        67.875326906   T   T   T
     1.679181576         0.000000000        65.007740503   T   T   T
     1.679181576         1.679181576        62.140154100   T   T   T
     0.000000000         1.679181576        59.272562911   T   T   T
     0.000000000         0.000000000        56.404976507   T   T   T
     1.679181576         0.000000000        53.537390104   T   T   T
     1.679181576         1.679181576        50.669803700   T   T   T
     0.000000000         1.679181576        47.802212511   T   T   T
     0.000000000         0.000000000        44.934626108   T   T   T
     1.679181576         0.000000000        42.067039705   T   T   T
     1.679181576         1.679181576        39.199450908   T   T   T
     0.000000000         1.679181576        36.331862112   T   T   T
     0.000000000         0.000000000        33.464275709   T   T   T
     1.679181576         0.000000000        30.596686912   T   T   T
     1.679181576         1.679181576        27.729100509   T   T   T
     0.000000000         1.679181576        24.861511713   T   T   T
     0.000000000         0.000000000        21.993922917   F   F   F
     1.679181576         0.000000000        19.126336513   F   F   F
     1.679181576         1.679181576        16.258748913   F   F   F
     0.000000000         1.679181576        13.391161314   F   F   F
     0.000000000         0.000000000        10.523572517   F   F   F
     1.679181576         0.000000000         7.655984917   F   F   F
     1.679181576         1.679181576         4.788397318   F   F   F
     0.000000000         1.679181576         1.920809718   F   F   F
