Supercell NbP 1x1x7 + SOC               
   1.00000000000000     
     3.3583631515999999    0.0000000000000000    0.0000000000000000
     0.0000000000000000    3.3583631515999999    0.0000000000000000
     0.0000000000000000    0.0000000000000000   90.2924575806000007
   Nb   P 
    28    28
Selective dynamics
Direct
  0.5000169147912991  0.4999874656244538  0.8866523165278378   T   T   T
 -0.0000008183708250  0.4999852898471573  0.8565361994311211   F   F   F
 -0.0000044061289761 -0.0000007499128255  0.8247377798442816   F   F   F
  0.4999980682210654  0.0000014934501343  0.7930981117461552   F   F   F
  0.4999985791055145  0.5000017640187242  0.7614533945281485   F   F   F
 -0.0000016070063318  0.5000020401590560  0.7298070883912749   F   F   F
 -0.0000023240342184  0.0000035613956962  0.6981640489245364   F   F   F
  0.4999959792891826  0.0000039151146851  0.6665059704355836   F   F   F
  0.4999958350325216  0.5000040697203485  0.6348330947163123   F   F   F
 -0.0000021002961321  0.5000037737441745  0.6031581420265988   F   F   F
 -0.0000012257250545  0.0000020793758077  0.5714812860273981   F   F   F
  0.5000000806164853  0.0000014140620393  0.5398029774289524   F   F   F
  0.5000003791246380  0.5000005748843319  0.5081099294804927   F   F   F
  0.0000004059671276  0.5000003608637850  0.4763985225149417   F   F   F
  0.0000004276904930  0.0000002427250034  0.4446921002414317   F   F   F
  0.5000003474671808  0.0000002737951602  0.4129414037818024   F   F   F
  0.5000003532910424  0.5000001910435352  0.3811552151350392   F   F   F
  0.0000002542115424  0.5000002186402391  0.3493733345802789   F   F   F
  0.0000002404852726  0.0000001366838984  0.3176013864209886   F   F   F
  0.5000000840054565  0.0000001225466838  0.2858339909762302   F   F   F
  0.5000000000595506  0.5000000000595506  0.2540598011137618   F   F   F
  0.0000000000000000  0.5000000000595506  0.2223009313273181   F   F   F
  0.0000000000000000  0.0000000000000000  0.1905420482839588   F   F   F
  0.5000000000595506  0.0000000000000000  0.1587831652405995   F   F   F
  0.5000000000595506  0.5000000000595506  0.1270242689513879   F   F   F
  0.0000000000000000  0.5000000000595506  0.0952653859080286   F   F   F
  0.0000000000000000  0.0000000000000000  0.0635065094986658   F   F   F
  0.5000000000595506  0.0000000000000000  0.0317476231438363   F   F   F
  0.0000196022667149 -0.0000177142629379  0.8778216756078402   T   T   T
  0.4999957310332311 -0.0000111862775509  0.8458698754542496   F   F   F
  0.4999970711788819  0.4999989806424657  0.8142706430071756   F   F   F
 -0.0000020653823499  0.5000026309230754  0.7826467853865036   F   F   F
 -0.0000010984702042  0.0000018207975585  0.7509976406505604   F   F   F
  0.4999982646118372  0.0000021717218063  0.7193680413417561   F   F   F
  0.4999974259993455  0.5000037363206068  0.6877135937106452   F   F   F
 -0.0000041919043665  0.5000040406700736  0.6560509980911557   F   F   F
 -0.0000040746913984  0.0000040480504469  0.6243726285080593   F   F   F
  0.4999981647270542  0.0000036721803611  0.5926990848881214   F   F   F
  0.4999990279048419  0.5000018561488787  0.5610173487364928   F   F   F
  0.0000002201786927  0.5000013004356731  0.5293411021166613   F   F   F
  0.0000004142279605  0.0000004928876826  0.4976268720094678   F   F   F
  0.5000004227240702  0.0000003342390037  0.4659231008433365   F   F   F
  0.5000003778775195  0.5000002630818068  0.4342029233129062   F   F   F
  0.0000003693942973  0.5000002233415271  0.4024219539196420   F   F   F
  0.0000003050263805  0.0000002206374011  0.3706326341082423   F   F   F
  0.5000002593576820  0.0000001722462384  0.3388567526661084   F   F   F
  0.5000002105915859  0.5000001368896764  0.3070872633350715   F   F   F
  0.0000000609388187  0.5000000923763516  0.2753214532224088   F   F   F
  0.0000000000000000  0.0000000000000000  0.2435853836115527   F   F   F
  0.5000000000595506  0.0000000000000000  0.2118265138140316   F   F   F
  0.5000000000595506  0.5000000000595506  0.1800676307706723   F   F   F
  0.0000000000000000  0.5000000000595506  0.1483087477383833   F   F   F
  0.0000000000000000  0.0000000000000000  0.1165498514381014   F   F   F
  0.5000000000595506  0.0000000000000000  0.0847909683947421   F   F   F
  0.5000000000595506  0.5000000000595506  0.0530320853624531   F   F   F
  0.0000000000000000  0.5000000000595506  0.0212732023190938   F   F   F
 
  0.00000000E+00  0.00000000E+00  0.00000000E+00
  0.00000000E+00  0.00000000E+00  0.00000000E+00
  0.00000000E+00  0.00000000E+00  0.00000000E+00
  0.00000000E+00  0.00000000E+00  0.00000000E+00
  0.00000000E+00  0.00000000E+00  0.00000000E+00
  0.00000000E+00  0.00000000E+00  0.00000000E+00
  0.00000000E+00  0.00000000E+00  0.00000000E+00
  0.00000000E+00  0.00000000E+00  0.00000000E+00
  0.00000000E+00  0.00000000E+00  0.00000000E+00
  0.00000000E+00  0.00000000E+00  0.00000000E+00
  0.00000000E+00  0.00000000E+00  0.00000000E+00
  0.00000000E+00  0.00000000E+00  0.00000000E+00
  0.00000000E+00  0.00000000E+00  0.00000000E+00
  0.00000000E+00  0.00000000E+00  0.00000000E+00
  0.00000000E+00  0.00000000E+00  0.00000000E+00
  0.00000000E+00  0.00000000E+00  0.00000000E+00
  0.00000000E+00  0.00000000E+00  0.00000000E+00
  0.00000000E+00  0.00000000E+00  0.00000000E+00
  0.00000000E+00  0.00000000E+00  0.00000000E+00
  0.00000000E+00  0.00000000E+00  0.00000000E+00
  0.00000000E+00  0.00000000E+00  0.00000000E+00
  0.00000000E+00  0.00000000E+00  0.00000000E+00
  0.00000000E+00  0.00000000E+00  0.00000000E+00
  0.00000000E+00  0.00000000E+00  0.00000000E+00
  0.00000000E+00  0.00000000E+00  0.00000000E+00
  0.00000000E+00  0.00000000E+00  0.00000000E+00
  0.00000000E+00  0.00000000E+00  0.00000000E+00
  0.00000000E+00  0.00000000E+00  0.00000000E+00
  0.00000000E+00  0.00000000E+00  0.00000000E+00
  0.00000000E+00  0.00000000E+00  0.00000000E+00
  0.00000000E+00  0.00000000E+00  0.00000000E+00
  0.00000000E+00  0.00000000E+00  0.00000000E+00
  0.00000000E+00  0.00000000E+00  0.00000000E+00
  0.00000000E+00  0.00000000E+00  0.00000000E+00
  0.00000000E+00  0.00000000E+00  0.00000000E+00
  0.00000000E+00  0.00000000E+00  0.00000000E+00
  0.00000000E+00  0.00000000E+00  0.00000000E+00
  0.00000000E+00  0.00000000E+00  0.00000000E+00
  0.00000000E+00  0.00000000E+00  0.00000000E+00
  0.00000000E+00  0.00000000E+00  0.00000000E+00
  0.00000000E+00  0.00000000E+00  0.00000000E+00
  0.00000000E+00  0.00000000E+00  0.00000000E+00
  0.00000000E+00  0.00000000E+00  0.00000000E+00
  0.00000000E+00  0.00000000E+00  0.00000000E+00
  0.00000000E+00  0.00000000E+00  0.00000000E+00
  0.00000000E+00  0.00000000E+00  0.00000000E+00
  0.00000000E+00  0.00000000E+00  0.00000000E+00
  0.00000000E+00  0.00000000E+00  0.00000000E+00
  0.00000000E+00  0.00000000E+00  0.00000000E+00
  0.00000000E+00  0.00000000E+00  0.00000000E+00
  0.00000000E+00  0.00000000E+00  0.00000000E+00
  0.00000000E+00  0.00000000E+00  0.00000000E+00
  0.00000000E+00  0.00000000E+00  0.00000000E+00
  0.00000000E+00  0.00000000E+00  0.00000000E+00
  0.00000000E+00  0.00000000E+00  0.00000000E+00
  0.00000000E+00  0.00000000E+00  0.00000000E+00
