Supercell NbP 1x1x7 + SOC + H           
   1.00000000000000     
     3.3583631515999999    0.0000000000000000    0.0000000000000000
     0.0000000000000000    3.3583631515999999    0.0000000000000000
     0.0000000000000000    0.0000000000000000   90.2924575806000007
   H    Nb   P 
     1    28    28
Selective dynamics
Direct
  0.5000055196657180  0.9939806458411287  0.9005083656123669   T   T   T
  0.5000037841514232  0.4942239550404958  0.8875159512265731   T   T   T
  0.0000018459707287  0.4949447583971832  0.8564061688933159   T   T   T
  0.0000013380678263 -0.0012221816756712  0.8246721998267531   T   T   T
  0.4999989351434909 -0.0002097885764561  0.7930506135867897   T   T   T
  0.4999984889762931  0.5000027961672051  0.7614150532017459   T   T   T
  0.9999980255601040  0.5000077968349578  0.7297857191411287   T   T   T
  0.9999978447687663  0.0000099185671935  0.6981368974474611   T   T   T
  0.4999965852628087  0.0000109818410886  0.6664822240255642   T   T   T
  0.4999963313315078  0.5000122439158781  0.6348203489791324   T   T   T
  0.9999974534600916  0.5000121271892151  0.6031488458681855   T   T   T
  0.9999980523491212  0.0000107022418149  0.5714681472760588   T   T   T
  0.4999994185397558  0.0000101574417213  0.5397754701045744   T   T   T
  0.4999998262286506  0.5000092597063792  0.5080715431855565   T   T   T
  0.0000002480643222  0.5000090577162981  0.4763523450202449   T   T   T
  0.0000003219505461  0.0000086902284882  0.4446228888455802   T   T   T
  0.5000003050698145  0.0000079077424242  0.4128844182782148   T   T   T
  0.5000002642785222  0.5000036958996814  0.3811360316836532   T   T   T
  0.0000001715505976  0.5000049387909901  0.3493766737940574   T   T   T
  0.0000001326908559  0.0000076873694827  0.3176105371070680   T   T   T
  0.5000000532166475  0.0000073100541922  0.2858394858785682   T   T   T
  0.5000000000595506  0.5000000000595506  0.2540598011137618   F   F   F
  0.0000000000000000  0.5000000000595506  0.2223009313273181   F   F   F
  0.0000000000000000  0.0000000000000000  0.1905420482839588   F   F   F
  0.5000000000595506  0.0000000000000000  0.1587831652405995   F   F   F
  0.5000000000595506  0.5000000000595506  0.1270242689513879   F   F   F
  0.0000000000000000  0.5000000000595506  0.0952653859080286   F   F   F
  0.0000000000000000  0.0000000000000000  0.0635065094986658   F   F   F
  0.5000000000595506  0.0000000000000000  0.0317476231438363   F   F   F
  0.0000035887954042  0.9944215406347419  0.8774467440613158   T   T   T
  0.5000016848338392 -0.0049843950381787  0.8458124857906362   T   T   T
  0.5000013240546821  0.4992725819760304  0.8142272239096449   T   T   T
 -0.0000011352852332  0.4999512972191916  0.7826015285985326   T   T   T
  0.9999983653595020  0.0000096267783061  0.7509826168496365   T   T   T
  0.4999977532669634  0.0000096529643510  0.7193395558360184   T   T   T
  0.4999978147361392  0.5000106040342079  0.6876869293198907   T   T   T
  0.9999963679338195  0.5000116430857272  0.6560303347160874   T   T   T
  0.9999963123973047  0.0000123293697853  0.6243634225341327   T   T   T
  0.4999975999745860  0.0000122249804762  0.5926873581631288   T   T   T
  0.4999982260228484  0.5000105757471468  0.5609980409772305   T   T   T
 -0.0000004351337697  0.5000100510913286  0.5293015532411066   T   T   T
 -0.0000000704953396  0.0000091363511904  0.4975911132611597   T   T   T
  0.5000002963893947  0.0000090699342328  0.4658639618711650   T   T   T
  0.5000003476193542  0.5000086049489041  0.4341312488485459   T   T   T
  0.0000002921044493  0.5000071352910604  0.4023864584739660   T   T   T
  0.0000002561494328  0.0000019455152463  0.3706332343783155   T   T   T
  0.5000001670278392  0.0000050259557710  0.3388680712985592   T   T   T
  0.5000001242973229  0.5000078909070967  0.3070962611411320   T   T   T
  0.0000000105300417  0.5000068631716453  0.2753242554657418   T   T   T
  0.0000000000000000  0.0000000000000000  0.2435853836115527   F   F   F
  0.5000000000595506  0.0000000000000000  0.2118265138140316   F   F   F
  0.5000000000595506  0.5000000000595506  0.1800676307706723   F   F   F
  0.0000000000000000  0.5000000000595506  0.1483087477383833   F   F   F
  0.0000000000000000  0.0000000000000000  0.1165498514381014   F   F   F
  0.5000000000595506  0.0000000000000000  0.0847909683947421   F   F   F
  0.5000000000595506  0.5000000000595506  0.0530320853624531   F   F   F
  0.0000000000000000  0.5000000000595506  0.0212732023190938   F   F   F
 
  0.00000000E+00  0.00000000E+00  0.00000000E+00
  0.00000000E+00  0.00000000E+00  0.00000000E+00
  0.00000000E+00  0.00000000E+00  0.00000000E+00
  0.00000000E+00  0.00000000E+00  0.00000000E+00
  0.00000000E+00  0.00000000E+00  0.00000000E+00
  0.00000000E+00  0.00000000E+00  0.00000000E+00
  0.00000000E+00  0.00000000E+00  0.00000000E+00
  0.00000000E+00  0.00000000E+00  0.00000000E+00
  0.00000000E+00  0.00000000E+00  0.00000000E+00
  0.00000000E+00  0.00000000E+00  0.00000000E+00
  0.00000000E+00  0.00000000E+00  0.00000000E+00
  0.00000000E+00  0.00000000E+00  0.00000000E+00
  0.00000000E+00  0.00000000E+00  0.00000000E+00
  0.00000000E+00  0.00000000E+00  0.00000000E+00
  0.00000000E+00  0.00000000E+00  0.00000000E+00
  0.00000000E+00  0.00000000E+00  0.00000000E+00
  0.00000000E+00  0.00000000E+00  0.00000000E+00
  0.00000000E+00  0.00000000E+00  0.00000000E+00
  0.00000000E+00  0.00000000E+00  0.00000000E+00
  0.00000000E+00  0.00000000E+00  0.00000000E+00
  0.00000000E+00  0.00000000E+00  0.00000000E+00
  0.00000000E+00  0.00000000E+00  0.00000000E+00
  0.00000000E+00  0.00000000E+00  0.00000000E+00
  0.00000000E+00  0.00000000E+00  0.00000000E+00
  0.00000000E+00  0.00000000E+00  0.00000000E+00
  0.00000000E+00  0.00000000E+00  0.00000000E+00
  0.00000000E+00  0.00000000E+00  0.00000000E+00
  0.00000000E+00  0.00000000E+00  0.00000000E+00
  0.00000000E+00  0.00000000E+00  0.00000000E+00
  0.00000000E+00  0.00000000E+00  0.00000000E+00
  0.00000000E+00  0.00000000E+00  0.00000000E+00
  0.00000000E+00  0.00000000E+00  0.00000000E+00
  0.00000000E+00  0.00000000E+00  0.00000000E+00
  0.00000000E+00  0.00000000E+00  0.00000000E+00
  0.00000000E+00  0.00000000E+00  0.00000000E+00
  0.00000000E+00  0.00000000E+00  0.00000000E+00
  0.00000000E+00  0.00000000E+00  0.00000000E+00
  0.00000000E+00  0.00000000E+00  0.00000000E+00
  0.00000000E+00  0.00000000E+00  0.00000000E+00
  0.00000000E+00  0.00000000E+00  0.00000000E+00
  0.00000000E+00  0.00000000E+00  0.00000000E+00
  0.00000000E+00  0.00000000E+00  0.00000000E+00
  0.00000000E+00  0.00000000E+00  0.00000000E+00
  0.00000000E+00  0.00000000E+00  0.00000000E+00
  0.00000000E+00  0.00000000E+00  0.00000000E+00
  0.00000000E+00  0.00000000E+00  0.00000000E+00
  0.00000000E+00  0.00000000E+00  0.00000000E+00
  0.00000000E+00  0.00000000E+00  0.00000000E+00
  0.00000000E+00  0.00000000E+00  0.00000000E+00
  0.00000000E+00  0.00000000E+00  0.00000000E+00
  0.00000000E+00  0.00000000E+00  0.00000000E+00
  0.00000000E+00  0.00000000E+00  0.00000000E+00
  0.00000000E+00  0.00000000E+00  0.00000000E+00
  0.00000000E+00  0.00000000E+00  0.00000000E+00
  0.00000000E+00  0.00000000E+00  0.00000000E+00
  0.00000000E+00  0.00000000E+00  0.00000000E+00
  0.00000000E+00  0.00000000E+00  0.00000000E+00
