&CONTROL
  calculation 	= 'scf'
  etot_conv_thr =   4.0000000000d-05
  forc_conv_thr =   1.0000000000d-04
  outdir 	= './out/'
  prefix 	= 'NbP_spin'
  pseudo_dir 	= './pseudo/'
  tprnfor 	= .true.
  tstress 	= .true.
  verbosity 	= 'high'
/
&SYSTEM
  degauss 	=   7.3498618000d-03
  ecutrho 	=   3.2000000000d+02
  ecutwfc 	=   4.0000000000d+01
  ibrav 	= 0
  nat 		= 4
  nosym 	= .false.
  nspin 	= 2
  ntyp 		= 2
  occupations 	= 'smearing'
  smearing 	= 'cold'
  starting_magnetization(1) =   3.8461538462d-01
  starting_magnetization(2) =   1.0000000000d-01
/
&ELECTRONS
  conv_thr 	=   8.0000000000d-10
  electron_maxstep = 80
  mixing_beta 	=   4.0000000000d-01
/
ATOMIC_SPECIES
Nb     92.90638 Nb.pbesol-spn-kjpaw_psl.0.3.0.UPF
P      30.973761 P.pbesol-n-rrkjus_psl.1.0.0.UPF
ATOMIC_POSITIONS angstrom
Nb       0.0000000000     1.6782189994     5.7173443916
Nb      -0.0000000000     0.0000000000     2.8582318925
P        1.6782189994     0.0000000000     4.7741117417
P        1.6782189994     1.6782189994     1.9149992426
K_POINTS automatic
14 14 8 0 0 0
CELL_PARAMETERS angstrom
   -1.6782189994     1.6782189994     5.7182249983
    1.6782189994    -1.6782189994     5.7182249983
    1.6782189994     1.6782189994    -5.7182249983
