&CONTROL
  calculation 	= 'bands'
  etot_conv_thr =   4.0000000000d-05
  forc_conv_thr =   1.0000000000d-04
  outdir 	= './out/'
  prefix 	= 'NbP'
  pseudo_dir 	= './pseudo/'
  tprnfor 	= .true.
  tstress 	= .true.
  verbosity 	= 'high'
/
&SYSTEM
  degauss =   7.3498618000d-03
  ecutrho =   3.2000000000d+02
  ecutwfc =   4.0000000000d+01
  ibrav = 0
  nat = 4
  nosym = .false.
  nspin = 2
  ntyp = 2
  occupations = 'smearing'
  smearing = 'cold'
  starting_magnetization(1) =   3.8461538462d-01
  starting_magnetization(2) =   1.0000000000d-01
  nbnd = 8
/
&ELECTRONS
  conv_thr =   8.0000000000d-10
  electron_maxstep = 80
  mixing_beta =   4.0000000000d-01
/
ATOMIC_SPECIES
Nb     92.90638 Nb.pbesol-spn-kjpaw_psl.0.3.0.UPF
P      30.973761 P.pbesol-n-rrkjus_psl.1.0.0.UPF
ATOMIC_POSITIONS angstrom
Nb       1.6782189994     0.0000000000     2.8582318925
Nb       0.0000000000    -0.0000000000     5.7173443916
P       -0.0000000000     1.6782189994     1.9149992426
P        1.6782189994     1.6782189994     4.7741117417
K_POINTS crystal
         478
        0.0000000000    0.0000000000    0.0000000000    1.0
       -0.0052083333   -0.0052083333    0.0052083333    1.0
       -0.0104166667   -0.0104166667    0.0104166667    1.0
       -0.0156250000   -0.0156250000    0.0156250000    1.0
       -0.0208333333   -0.0208333333    0.0208333333    1.0
       -0.0260416667   -0.0260416667    0.0260416667    1.0
       -0.0312500000   -0.0312500000    0.0312500000    1.0
       -0.0364583333   -0.0364583333    0.0364583333    1.0
       -0.0416666667   -0.0416666667    0.0416666667    1.0
       -0.0468750000   -0.0468750000    0.0468750000    1.0
       -0.0520833333   -0.0520833333    0.0520833333    1.0
       -0.0572916667   -0.0572916667    0.0572916667    1.0
       -0.0625000000   -0.0625000000    0.0625000000    1.0
       -0.0677083333   -0.0677083333    0.0677083333    1.0
       -0.0729166667   -0.0729166667    0.0729166667    1.0
       -0.0781250000   -0.0781250000    0.0781250000    1.0
       -0.0833333333   -0.0833333333    0.0833333333    1.0
       -0.0885416667   -0.0885416667    0.0885416667    1.0
       -0.0937500000   -0.0937500000    0.0937500000    1.0
       -0.0989583333   -0.0989583333    0.0989583333    1.0
       -0.1041666667   -0.1041666667    0.1041666667    1.0
       -0.1093750000   -0.1093750000    0.1093750000    1.0
       -0.1145833333   -0.1145833333    0.1145833333    1.0
       -0.1197916667   -0.1197916667    0.1197916667    1.0
       -0.1250000000   -0.1250000000    0.1250000000    1.0
       -0.1302083333   -0.1302083333    0.1302083333    1.0
       -0.1354166667   -0.1354166667    0.1354166667    1.0
       -0.1406250000   -0.1406250000    0.1406250000    1.0
       -0.1458333333   -0.1458333333    0.1458333333    1.0
       -0.1510416667   -0.1510416667    0.1510416667    1.0
       -0.1562500000   -0.1562500000    0.1562500000    1.0
       -0.1614583333   -0.1614583333    0.1614583333    1.0
       -0.1666666667   -0.1666666667    0.1666666667    1.0
       -0.1718750000   -0.1718750000    0.1718750000    1.0
       -0.1770833333   -0.1770833333    0.1770833333    1.0
       -0.1822916667   -0.1822916667    0.1822916667    1.0
       -0.1875000000   -0.1875000000    0.1875000000    1.0
       -0.1927083333   -0.1927083333    0.1927083333    1.0
       -0.1979166667   -0.1979166667    0.1979166667    1.0
       -0.2031250000   -0.2031250000    0.2031250000    1.0
       -0.2083333333   -0.2083333333    0.2083333333    1.0
       -0.2135416667   -0.2135416667    0.2135416667    1.0
       -0.2187500000   -0.2187500000    0.2187500000    1.0
       -0.2239583333   -0.2239583333    0.2239583333    1.0
       -0.2291666667   -0.2291666667    0.2291666667    1.0
       -0.2343750000   -0.2343750000    0.2343750000    1.0
       -0.2395833333   -0.2395833333    0.2395833333    1.0
       -0.2447916667   -0.2447916667    0.2447916667    1.0
       -0.2500000000   -0.2500000000    0.2500000000    1.0
       -0.2552083333   -0.2552083333    0.2552083333    1.0
       -0.2604166667   -0.2604166667    0.2604166667    1.0
       -0.2656250000   -0.2656250000    0.2656250000    1.0
       -0.2708333333   -0.2708333333    0.2708333333    1.0
       -0.2760416667   -0.2760416667    0.2760416667    1.0
       -0.2812500000   -0.2812500000    0.2812500000    1.0
       -0.2864583333   -0.2864583333    0.2864583333    1.0
       -0.2916666667   -0.2916666667    0.2916666667    1.0
       -0.2968750000   -0.2968750000    0.2968750000    1.0
       -0.3020833333   -0.3020833333    0.3020833333    1.0
       -0.3072916667   -0.3072916667    0.3072916667    1.0
       -0.3125000000   -0.3125000000    0.3125000000    1.0
       -0.3177083333   -0.3177083333    0.3177083333    1.0
       -0.3229166667   -0.3229166667    0.3229166667    1.0
       -0.3281250000   -0.3281250000    0.3281250000    1.0
       -0.3333333333   -0.3333333333    0.3333333333    1.0
       -0.3385416667   -0.3385416667    0.3385416667    1.0
       -0.3437500000   -0.3437500000    0.3437500000    1.0
       -0.3489583333   -0.3489583333    0.3489583333    1.0
       -0.3541666667   -0.3541666667    0.3541666667    1.0
       -0.3593750000   -0.3593750000    0.3593750000    1.0
       -0.3645833333   -0.3645833333    0.3645833333    1.0
       -0.3697916667   -0.3697916667    0.3697916667    1.0
       -0.3750000000   -0.3750000000    0.3750000000    1.0
       -0.3802083333   -0.3802083333    0.3802083333    1.0
       -0.3854166667   -0.3854166667    0.3854166667    1.0
       -0.3906250000   -0.3906250000    0.3906250000    1.0
       -0.3958333333   -0.3958333333    0.3958333333    1.0
       -0.4010416667   -0.4010416667    0.4010416667    1.0
       -0.4062500000   -0.4062500000    0.4062500000    1.0
       -0.4114583333   -0.4114583333    0.4114583333    1.0
       -0.4166666667   -0.4166666667    0.4166666667    1.0
       -0.4218750000   -0.4218750000    0.4218750000    1.0
       -0.4270833333   -0.4270833333    0.4270833333    1.0
       -0.4322916667   -0.4322916667    0.4322916667    1.0
       -0.4375000000   -0.4375000000    0.4375000000    1.0
       -0.4427083333   -0.4427083333    0.4427083333    1.0
       -0.4479166667   -0.4479166667    0.4479166667    1.0
       -0.4531250000   -0.4531250000    0.4531250000    1.0
       -0.4583333333   -0.4583333333    0.4583333333    1.0
       -0.4635416667   -0.4635416667    0.4635416667    1.0
       -0.4687500000   -0.4687500000    0.4687500000    1.0
       -0.4739583333   -0.4739583333    0.4739583333    1.0
       -0.4791666667   -0.4791666667    0.4791666667    1.0
       -0.4843750000   -0.4843750000    0.4843750000    1.0
       -0.4895833333   -0.4895833333    0.4895833333    1.0
       -0.4947916667   -0.4947916667    0.4947916667    1.0
       -0.5000000000   -0.5000000000    0.5000000000    1.0
       -0.5000000000   -0.5000000000    0.5125000000    1.0
       -0.5000000000   -0.5000000000    0.5250000000    1.0
       -0.5000000000   -0.5000000000    0.5375000000    1.0
       -0.5000000000   -0.5000000000    0.5500000000    1.0
       -0.5000000000   -0.5000000000    0.5625000000    1.0
       -0.5000000000   -0.5000000000    0.5750000000    1.0
       -0.5000000000   -0.5000000000    0.5875000000    1.0
       -0.5000000000   -0.5000000000    0.6000000000    1.0
       -0.5000000000   -0.5000000000    0.6125000000    1.0
       -0.5000000000   -0.5000000000    0.6250000000    1.0
       -0.5000000000   -0.5000000000    0.6375000000    1.0
       -0.5000000000   -0.5000000000    0.6500000000    1.0
       -0.5000000000   -0.5000000000    0.6625000000    1.0
       -0.5000000000   -0.5000000000    0.6750000000    1.0
       -0.5000000000   -0.5000000000    0.6875000000    1.0
       -0.5000000000   -0.5000000000    0.7000000000    1.0
       -0.5000000000   -0.5000000000    0.7125000000    1.0
       -0.5000000000   -0.5000000000    0.7250000000    1.0
       -0.5000000000   -0.5000000000    0.7375000000    1.0
       -0.5000000000   -0.5000000000    0.7500000000    1.0
       -0.4926470588   -0.5000000000    0.7463235294    1.0
       -0.4852941176   -0.5000000000    0.7426470588    1.0
       -0.4779411765   -0.5000000000    0.7389705882    1.0
       -0.4705882353   -0.5000000000    0.7352941176    1.0
       -0.4632352941   -0.5000000000    0.7316176471    1.0
       -0.4558823529   -0.5000000000    0.7279411765    1.0
       -0.4485294118   -0.5000000000    0.7242647059    1.0
       -0.4411764706   -0.5000000000    0.7205882353    1.0
       -0.4338235294   -0.5000000000    0.7169117647    1.0
       -0.4264705882   -0.5000000000    0.7132352941    1.0
       -0.4191176471   -0.5000000000    0.7095588235    1.0
       -0.4117647059   -0.5000000000    0.7058823529    1.0
       -0.4044117647   -0.5000000000    0.7022058824    1.0
       -0.3970588235   -0.5000000000    0.6985294118    1.0
       -0.3897058824   -0.5000000000    0.6948529412    1.0
       -0.3823529412   -0.5000000000    0.6911764706    1.0
       -0.3750000000   -0.5000000000    0.6875000000    1.0
       -0.3676470588   -0.5000000000    0.6838235294    1.0
       -0.3602941176   -0.5000000000    0.6801470588    1.0
       -0.3529411765   -0.5000000000    0.6764705882    1.0
       -0.3455882353   -0.5000000000    0.6727941176    1.0
       -0.3382352941   -0.5000000000    0.6691176471    1.0
       -0.3308823529   -0.5000000000    0.6654411765    1.0
       -0.3235294118   -0.5000000000    0.6617647059    1.0
       -0.3161764706   -0.5000000000    0.6580882353    1.0
       -0.3088235294   -0.5000000000    0.6544117647    1.0
       -0.3014705882   -0.5000000000    0.6507352941    1.0
       -0.2941176471   -0.5000000000    0.6470588235    1.0
       -0.2867647059   -0.5000000000    0.6433823529    1.0
       -0.2794117647   -0.5000000000    0.6397058824    1.0
       -0.2720588235   -0.5000000000    0.6360294118    1.0
       -0.2647058824   -0.5000000000    0.6323529412    1.0
       -0.2573529412   -0.5000000000    0.6286764706    1.0
       -0.2500000000   -0.5000000000    0.6250000000    1.0
       -0.2426470588   -0.5000000000    0.6213235294    1.0
       -0.2352941176   -0.5000000000    0.6176470588    1.0
       -0.2279411765   -0.5000000000    0.6139705882    1.0
       -0.2205882353   -0.5000000000    0.6102941176    1.0
       -0.2132352941   -0.5000000000    0.6066176471    1.0
       -0.2058823529   -0.5000000000    0.6029411765    1.0
       -0.1985294118   -0.5000000000    0.5992647059    1.0
       -0.1911764706   -0.5000000000    0.5955882353    1.0
       -0.1838235294   -0.5000000000    0.5919117647    1.0
       -0.1764705882   -0.5000000000    0.5882352941    1.0
       -0.1691176471   -0.5000000000    0.5845588235    1.0
       -0.1617647059   -0.5000000000    0.5808823529    1.0
       -0.1544117647   -0.5000000000    0.5772058824    1.0
       -0.1470588235   -0.5000000000    0.5735294118    1.0
       -0.1397058824   -0.5000000000    0.5698529412    1.0
       -0.1323529412   -0.5000000000    0.5661764706    1.0
       -0.1250000000   -0.5000000000    0.5625000000    1.0
       -0.1176470588   -0.5000000000    0.5588235294    1.0
       -0.1102941176   -0.5000000000    0.5551470588    1.0
       -0.1029411765   -0.5000000000    0.5514705882    1.0
       -0.0955882353   -0.5000000000    0.5477941176    1.0
       -0.0882352941   -0.5000000000    0.5441176471    1.0
       -0.0808823529   -0.5000000000    0.5404411765    1.0
       -0.0735294118   -0.5000000000    0.5367647059    1.0
       -0.0661764706   -0.5000000000    0.5330882353    1.0
       -0.0588235294   -0.5000000000    0.5294117647    1.0
       -0.0514705882   -0.5000000000    0.5257352941    1.0
       -0.0441176471   -0.5000000000    0.5220588235    1.0
       -0.0367647059   -0.5000000000    0.5183823529    1.0
       -0.0294117647   -0.5000000000    0.5147058824    1.0
       -0.0220588235   -0.5000000000    0.5110294118    1.0
       -0.0147058824   -0.5000000000    0.5073529412    1.0
       -0.0073529412   -0.5000000000    0.5036764706    1.0
        0.0000000000   -0.5000000000    0.5000000000    1.0
        0.0000000000   -0.4979490476    0.5108795238    1.0
        0.0000000000   -0.4958980952    0.5217590476    1.0
        0.0000000000   -0.4938471429    0.5326385714    1.0
        0.0000000000   -0.4917961905    0.5435180952    1.0
        0.0000000000   -0.4897452381    0.5543976190    1.0
        0.0000000000   -0.4876942857    0.5652771429    1.0
        0.0000000000   -0.4856433333    0.5761566667    1.0
        0.0000000000   -0.4835923810    0.5870361905    1.0
        0.0000000000   -0.4815414286    0.5979157143    1.0
        0.0000000000   -0.4794904762    0.6087952381    1.0
        0.0000000000   -0.4774395238    0.6196747619    1.0
        0.0000000000   -0.4753885714    0.6305542857    1.0
        0.0000000000   -0.4733376190    0.6414338095    1.0
        0.0000000000   -0.4712866667    0.6523133333    1.0
        0.0000000000   -0.4692357143    0.6631928571    1.0
        0.0000000000   -0.4671847619    0.6740723810    1.0
        0.0000000000   -0.4651338095    0.6849519048    1.0
        0.0000000000   -0.4630828571    0.6958314286    1.0
        0.0000000000   -0.4610319048    0.7067109524    1.0
        0.0000000000   -0.4589809524    0.7175904762    1.0
        0.0000000000   -0.4569300000    0.7284700000    1.0
       -0.0073698387   -0.4569300000    0.7321548387    1.0
       -0.0147396774   -0.4569300000    0.7358396774    1.0
       -0.0221095161   -0.4569300000    0.7395245161    1.0
       -0.0294793548   -0.4569300000    0.7432093548    1.0
       -0.0368491935   -0.4569300000    0.7468941935    1.0
       -0.0442190323   -0.4569300000    0.7505790323    1.0
       -0.0515888710   -0.4569300000    0.7542638710    1.0
       -0.0589587097   -0.4569300000    0.7579487097    1.0
       -0.0663285484   -0.4569300000    0.7616335484    1.0
       -0.0736983871   -0.4569300000    0.7653183871    1.0
       -0.0810682258   -0.4569300000    0.7690032258    1.0
       -0.0884380645   -0.4569300000    0.7726880645    1.0
       -0.0958079032   -0.4569300000    0.7763729032    1.0
       -0.1031777419   -0.4569300000    0.7800577419    1.0
       -0.1105475806   -0.4569300000    0.7837425806    1.0
       -0.1179174194   -0.4569300000    0.7874274194    1.0
       -0.1252872581   -0.4569300000    0.7911122581    1.0
       -0.1326570968   -0.4569300000    0.7947970968    1.0
       -0.1400269355   -0.4569300000    0.7984819355    1.0
       -0.1473967742   -0.4569300000    0.8021667742    1.0
       -0.1547666129   -0.4569300000    0.8058516129    1.0
       -0.1621364516   -0.4569300000    0.8095364516    1.0
       -0.1695062903   -0.4569300000    0.8132212903    1.0
       -0.1768761290   -0.4569300000    0.8169061290    1.0
       -0.1842459677   -0.4569300000    0.8205909677    1.0
       -0.1916158065   -0.4569300000    0.8242758065    1.0
       -0.1989856452   -0.4569300000    0.8279606452    1.0
       -0.2063554839   -0.4569300000    0.8316454839    1.0
       -0.2137253226   -0.4569300000    0.8353303226    1.0
       -0.2210951613   -0.4569300000    0.8390151613    1.0
       -0.2284650000   -0.4569300000    0.8427000000    1.0
       -0.2358348387   -0.4569300000    0.8463848387    1.0
       -0.2432046774   -0.4569300000    0.8500696774    1.0
       -0.2505745161   -0.4569300000    0.8537545161    1.0
       -0.2579443548   -0.4569300000    0.8574393548    1.0
       -0.2653141935   -0.4569300000    0.8611241935    1.0
       -0.2726840323   -0.4569300000    0.8648090323    1.0
       -0.2800538710   -0.4569300000    0.8684938710    1.0
       -0.2874237097   -0.4569300000    0.8721787097    1.0
       -0.2947935484   -0.4569300000    0.8758635484    1.0
       -0.3021633871   -0.4569300000    0.8795483871    1.0
       -0.3095332258   -0.4569300000    0.8832332258    1.0
       -0.3169030645   -0.4569300000    0.8869180645    1.0
       -0.3242729032   -0.4569300000    0.8906029032    1.0
       -0.3316427419   -0.4569300000    0.8942877419    1.0
       -0.3390125806   -0.4569300000    0.8979725806    1.0
       -0.3463824194   -0.4569300000    0.9016574194    1.0
       -0.3537522581   -0.4569300000    0.9053422581    1.0
       -0.3611220968   -0.4569300000    0.9090270968    1.0
       -0.3684919355   -0.4569300000    0.9127119355    1.0
       -0.3758617742   -0.4569300000    0.9163967742    1.0
       -0.3832316129   -0.4569300000    0.9200816129    1.0
       -0.3906014516   -0.4569300000    0.9237664516    1.0
       -0.3979712903   -0.4569300000    0.9274512903    1.0
       -0.4053411290   -0.4569300000    0.9311361290    1.0
       -0.4127109677   -0.4569300000    0.9348209677    1.0
       -0.4200808065   -0.4569300000    0.9385058065    1.0
       -0.4274506452   -0.4569300000    0.9421906452    1.0
       -0.4348204839   -0.4569300000    0.9458754839    1.0
       -0.4421903226   -0.4569300000    0.9495603226    1.0
       -0.4495601613   -0.4569300000    0.9532451613    1.0
       -0.4569300000   -0.4569300000    0.9569300000    1.0
       -0.4521703125   -0.4521703125    0.9469619792    1.0
       -0.4474106250   -0.4474106250    0.9369939583    1.0
       -0.4426509375   -0.4426509375    0.9270259375    1.0
       -0.4378912500   -0.4378912500    0.9170579167    1.0
       -0.4331315625   -0.4331315625    0.9070898958    1.0
       -0.4283718750   -0.4283718750    0.8971218750    1.0
       -0.4236121875   -0.4236121875    0.8871538542    1.0
       -0.4188525000   -0.4188525000    0.8771858333    1.0
       -0.4140928125   -0.4140928125    0.8672178125    1.0
       -0.4093331250   -0.4093331250    0.8572497917    1.0
       -0.4045734375   -0.4045734375    0.8472817708    1.0
       -0.3998137500   -0.3998137500    0.8373137500    1.0
       -0.3950540625   -0.3950540625    0.8273457292    1.0
       -0.3902943750   -0.3902943750    0.8173777083    1.0
       -0.3855346875   -0.3855346875    0.8074096875    1.0
       -0.3807750000   -0.3807750000    0.7974416667    1.0
       -0.3760153125   -0.3760153125    0.7874736458    1.0
       -0.3712556250   -0.3712556250    0.7775056250    1.0
       -0.3664959375   -0.3664959375    0.7675376042    1.0
       -0.3617362500   -0.3617362500    0.7575695833    1.0
       -0.3569765625   -0.3569765625    0.7476015625    1.0
       -0.3522168750   -0.3522168750    0.7376335417    1.0
       -0.3474571875   -0.3474571875    0.7276655208    1.0
       -0.3426975000   -0.3426975000    0.7176975000    1.0
       -0.3379378125   -0.3379378125    0.7077294792    1.0
       -0.3331781250   -0.3331781250    0.6977614583    1.0
       -0.3284184375   -0.3284184375    0.6877934375    1.0
       -0.3236587500   -0.3236587500    0.6778254167    1.0
       -0.3188990625   -0.3188990625    0.6678573958    1.0
       -0.3141393750   -0.3141393750    0.6578893750    1.0
       -0.3093796875   -0.3093796875    0.6479213542    1.0
       -0.3046200000   -0.3046200000    0.6379533333    1.0
       -0.2998603125   -0.2998603125    0.6279853125    1.0
       -0.2951006250   -0.2951006250    0.6180172917    1.0
       -0.2903409375   -0.2903409375    0.6080492708    1.0
       -0.2855812500   -0.2855812500    0.5980812500    1.0
       -0.2808215625   -0.2808215625    0.5881132292    1.0
       -0.2760618750   -0.2760618750    0.5781452083    1.0
       -0.2713021875   -0.2713021875    0.5681771875    1.0
       -0.2665425000   -0.2665425000    0.5582091667    1.0
       -0.2617828125   -0.2617828125    0.5482411458    1.0
       -0.2570231250   -0.2570231250    0.5382731250    1.0
       -0.2522634375   -0.2522634375    0.5283051042    1.0
       -0.2475037500   -0.2475037500    0.5183370833    1.0
       -0.2427440625   -0.2427440625    0.5083690625    1.0
       -0.2379843750   -0.2379843750    0.4984010417    1.0
       -0.2332246875   -0.2332246875    0.4884330208    1.0
       -0.2284650000   -0.2284650000    0.4784650000    1.0
       -0.2237053125   -0.2237053125    0.4684969792    1.0
       -0.2189456250   -0.2189456250    0.4585289583    1.0
       -0.2141859375   -0.2141859375    0.4485609375    1.0
       -0.2094262500   -0.2094262500    0.4385929167    1.0
       -0.2046665625   -0.2046665625    0.4286248958    1.0
       -0.1999068750   -0.1999068750    0.4186568750    1.0
       -0.1951471875   -0.1951471875    0.4086888542    1.0
       -0.1903875000   -0.1903875000    0.3987208333    1.0
       -0.1856278125   -0.1856278125    0.3887528125    1.0
       -0.1808681250   -0.1808681250    0.3787847917    1.0
       -0.1761084375   -0.1761084375    0.3688167708    1.0
       -0.1713487500   -0.1713487500    0.3588487500    1.0
       -0.1665890625   -0.1665890625    0.3488807292    1.0
       -0.1618293750   -0.1618293750    0.3389127083    1.0
       -0.1570696875   -0.1570696875    0.3289446875    1.0
       -0.1523100000   -0.1523100000    0.3189766667    1.0
       -0.1475503125   -0.1475503125    0.3090086458    1.0
       -0.1427906250   -0.1427906250    0.2990406250    1.0
       -0.1380309375   -0.1380309375    0.2890726042    1.0
       -0.1332712500   -0.1332712500    0.2791045833    1.0
       -0.1285115625   -0.1285115625    0.2691365625    1.0
       -0.1237518750   -0.1237518750    0.2591685417    1.0
       -0.1189921875   -0.1189921875    0.2492005208    1.0
       -0.1142325000   -0.1142325000    0.2392325000    1.0
       -0.1094728125   -0.1094728125    0.2292644792    1.0
       -0.1047131250   -0.1047131250    0.2192964583    1.0
       -0.0999534375   -0.0999534375    0.2093284375    1.0
       -0.0951937500   -0.0951937500    0.1993604167    1.0
       -0.0904340625   -0.0904340625    0.1893923958    1.0
       -0.0856743750   -0.0856743750    0.1794243750    1.0
       -0.0809146875   -0.0809146875    0.1694563542    1.0
       -0.0761550000   -0.0761550000    0.1594883333    1.0
       -0.0713953125   -0.0713953125    0.1495203125    1.0
       -0.0666356250   -0.0666356250    0.1395522917    1.0
       -0.0618759375   -0.0618759375    0.1295842708    1.0
       -0.0571162500   -0.0571162500    0.1196162500    1.0
       -0.0523565625   -0.0523565625    0.1096482292    1.0
       -0.0475968750   -0.0475968750    0.0996802083    1.0
       -0.0428371875   -0.0428371875    0.0897121875    1.0
       -0.0380775000   -0.0380775000    0.0797441667    1.0
       -0.0333178125   -0.0333178125    0.0697761458    1.0
       -0.0285581250   -0.0285581250    0.0598081250    1.0
       -0.0237984375   -0.0237984375    0.0498401042    1.0
       -0.0190387500   -0.0190387500    0.0398720833    1.0
       -0.0142790625   -0.0142790625    0.0299040625    1.0
       -0.0095193750   -0.0095193750    0.0199360417    1.0
       -0.0047596875   -0.0047596875    0.0099680208    1.0
        0.0000000000    0.0000000000    0.0000000000    1.0
        0.0000000000    0.0000000000    0.0125000000    1.0
        0.0000000000    0.0000000000    0.0250000000    1.0
        0.0000000000    0.0000000000    0.0375000000    1.0
        0.0000000000    0.0000000000    0.0500000000    1.0
        0.0000000000    0.0000000000    0.0625000000    1.0
        0.0000000000    0.0000000000    0.0750000000    1.0
        0.0000000000    0.0000000000    0.0875000000    1.0
        0.0000000000    0.0000000000    0.1000000000    1.0
        0.0000000000    0.0000000000    0.1125000000    1.0
        0.0000000000    0.0000000000    0.1250000000    1.0
        0.0000000000    0.0000000000    0.1375000000    1.0
        0.0000000000    0.0000000000    0.1500000000    1.0
        0.0000000000    0.0000000000    0.1625000000    1.0
        0.0000000000    0.0000000000    0.1750000000    1.0
        0.0000000000    0.0000000000    0.1875000000    1.0
        0.0000000000    0.0000000000    0.2000000000    1.0
        0.0000000000    0.0000000000    0.2125000000    1.0
        0.0000000000    0.0000000000    0.2250000000    1.0
        0.0000000000    0.0000000000    0.2375000000    1.0
        0.0000000000    0.0000000000    0.2500000000    1.0
        0.0000000000    0.0000000000    0.2625000000    1.0
        0.0000000000    0.0000000000    0.2750000000    1.0
        0.0000000000    0.0000000000    0.2875000000    1.0
        0.0000000000    0.0000000000    0.3000000000    1.0
        0.0000000000    0.0000000000    0.3125000000    1.0
        0.0000000000    0.0000000000    0.3250000000    1.0
        0.0000000000    0.0000000000    0.3375000000    1.0
        0.0000000000    0.0000000000    0.3500000000    1.0
        0.0000000000    0.0000000000    0.3625000000    1.0
        0.0000000000    0.0000000000    0.3750000000    1.0
        0.0000000000    0.0000000000    0.3875000000    1.0
        0.0000000000    0.0000000000    0.4000000000    1.0
        0.0000000000    0.0000000000    0.4125000000    1.0
        0.0000000000    0.0000000000    0.4250000000    1.0
        0.0000000000    0.0000000000    0.4375000000    1.0
        0.0000000000    0.0000000000    0.4500000000    1.0
        0.0000000000    0.0000000000    0.4625000000    1.0
        0.0000000000    0.0000000000    0.4750000000    1.0
        0.0000000000    0.0000000000    0.4875000000    1.0
        0.0000000000    0.0000000000    0.5000000000    1.0
        0.0000000000   -0.5357312162    0.2678606757    1.0
        0.0000000000   -0.5283924324    0.2641913514    1.0
        0.0000000000   -0.5210536486    0.2605220270    1.0
        0.0000000000   -0.5137148649    0.2568527027    1.0
        0.0000000000   -0.5063760811    0.2531833784    1.0
        0.0000000000   -0.4990372973    0.2495140541    1.0
        0.0000000000   -0.4916985135    0.2458447297    1.0
        0.0000000000   -0.4843597297    0.2421754054    1.0
        0.0000000000   -0.4770209459    0.2385060811    1.0
        0.0000000000   -0.4696821622    0.2348367568    1.0
        0.0000000000   -0.4623433784    0.2311674324    1.0
        0.0000000000   -0.4550045946    0.2274981081    1.0
        0.0000000000   -0.4476658108    0.2238287838    1.0
        0.0000000000   -0.4403270270    0.2201594595    1.0
        0.0000000000   -0.4329882432    0.2164901351    1.0
        0.0000000000   -0.4256494595    0.2128208108    1.0
        0.0000000000   -0.4183106757    0.2091514865    1.0
        0.0000000000   -0.4109718919    0.2054821622    1.0
        0.0000000000   -0.4036331081    0.2018128378    1.0
        0.0000000000   -0.3962943243    0.1981435135    1.0
        0.0000000000   -0.3889555405    0.1944741892    1.0
        0.0000000000   -0.3816167568    0.1908048649    1.0
        0.0000000000   -0.3742779730    0.1871355405    1.0
        0.0000000000   -0.3669391892    0.1834662162    1.0
        0.0000000000   -0.3596004054    0.1797968919    1.0
        0.0000000000   -0.3522616216    0.1761275676    1.0
        0.0000000000   -0.3449228378    0.1724582432    1.0
        0.0000000000   -0.3375840541    0.1687889189    1.0
        0.0000000000   -0.3302452703    0.1651195946    1.0
        0.0000000000   -0.3229064865    0.1614502703    1.0
        0.0000000000   -0.3155677027    0.1577809459    1.0
        0.0000000000   -0.3082289189    0.1541116216    1.0
        0.0000000000   -0.3008901351    0.1504422973    1.0
        0.0000000000   -0.2935513514    0.1467729730    1.0
        0.0000000000   -0.2862125676    0.1431036486    1.0
        0.0000000000   -0.2788737838    0.1394343243    1.0
        0.0000000000   -0.2715350000    0.1357650000    1.0
        0.0000000000   -0.2641962162    0.1320956757    1.0
        0.0000000000   -0.2568574324    0.1284263514    1.0
        0.0000000000   -0.2495186486    0.1247570270    1.0
        0.0000000000   -0.2421798649    0.1210877027    1.0
        0.0000000000   -0.2348410811    0.1174183784    1.0
        0.0000000000   -0.2275022973    0.1137490541    1.0
        0.0000000000   -0.2201635135    0.1100797297    1.0
        0.0000000000   -0.2128247297    0.1064104054    1.0
        0.0000000000   -0.2054859459    0.1027410811    1.0
        0.0000000000   -0.1981471622    0.0990717568    1.0
        0.0000000000   -0.1908083784    0.0954024324    1.0
        0.0000000000   -0.1834695946    0.0917331081    1.0
        0.0000000000   -0.1761308108    0.0880637838    1.0
        0.0000000000   -0.1687920270    0.0843944595    1.0
        0.0000000000   -0.1614532432    0.0807251351    1.0
        0.0000000000   -0.1541144595    0.0770558108    1.0
        0.0000000000   -0.1467756757    0.0733864865    1.0
        0.0000000000   -0.1394368919    0.0697171622    1.0
        0.0000000000   -0.1320981081    0.0660478378    1.0
        0.0000000000   -0.1247593243    0.0623785135    1.0
        0.0000000000   -0.1174205405    0.0587091892    1.0
        0.0000000000   -0.1100817568    0.0550398649    1.0
        0.0000000000   -0.1027429730    0.0513705405    1.0
        0.0000000000   -0.0954041892    0.0477012162    1.0
        0.0000000000   -0.0880654054    0.0440318919    1.0
        0.0000000000   -0.0807266216    0.0403625676    1.0
        0.0000000000   -0.0733878378    0.0366932432    1.0
        0.0000000000   -0.0660490541    0.0330239189    1.0
        0.0000000000   -0.0587102703    0.0293545946    1.0
        0.0000000000   -0.0513714865    0.0256852703    1.0
        0.0000000000   -0.0440327027    0.0220159459    1.0
        0.0000000000   -0.0366939189    0.0183466216    1.0