&PROJWFC
  prefix= 'NbP_spin',
  outdir= './out/',
  filpdos= 'NbP_pdos.dat'
/
