&CONTROL
  calculation = 'bands'
  etot_conv_thr =   4.0000000000d-05
  forc_conv_thr =   1.0000000000d-04
  outdir = './out/'
  prefix = 'aiida'
  pseudo_dir = './pseudo/'
  tprnfor = .true.
  tstress = .true.
  verbosity = 'high'
/
&SYSTEM
  degauss =   7.3498618000d-03
  ecutrho =   3.2000000000d+02
  ecutwfc =   4.0000000000d+01
  ibrav = 0
  nat = 4
  nosym = .false.
  ntyp = 2
  occupations = 'smearing'
  smearing = 'cold'
/
&ELECTRONS
  conv_thr =   8.0000000000d-10
  electron_maxstep = 80
  mixing_beta =   4.0000000000d-01
/
ATOMIC_SPECIES
Nb     92.90638 Nb.pbesol-spn-kjpaw_psl.0.3.0.UPF
P      30.973761 P.pbesol-n-rrkjus_psl.1.0.0.UPF
ATOMIC_POSITIONS angstrom
Nb      -0.0000000000     0.0000000000     5.7173443934
Nb       1.6782190000     0.0000000000     2.8582318934
P        1.6782190000     1.6782190000     4.7741117432
P        0.0000000000     1.6782190000     1.9149992432
K_POINTS crystal
560
    0.0000000000     0.0000000000     0.0000000000 1
    0.0000000000     0.0000000000     0.0098039216 1
    0.0000000000     0.0000000000     0.0196078431 1
    0.0000000000     0.0000000000     0.0294117647 1
    0.0000000000     0.0000000000     0.0392156863 1
    0.0000000000     0.0000000000     0.0490196078 1
    0.0000000000     0.0000000000     0.0588235294 1
    0.0000000000     0.0000000000     0.0686274510 1
    0.0000000000     0.0000000000     0.0784313725 1
    0.0000000000     0.0000000000     0.0882352941 1
    0.0000000000     0.0000000000     0.0980392157 1
    0.0000000000     0.0000000000     0.1078431373 1
    0.0000000000     0.0000000000     0.1176470588 1
    0.0000000000     0.0000000000     0.1274509804 1
    0.0000000000     0.0000000000     0.1372549020 1
    0.0000000000     0.0000000000     0.1470588235 1
    0.0000000000     0.0000000000     0.1568627451 1
    0.0000000000     0.0000000000     0.1666666667 1
    0.0000000000     0.0000000000     0.1764705882 1
    0.0000000000     0.0000000000     0.1862745098 1
    0.0000000000     0.0000000000     0.1960784314 1
    0.0000000000     0.0000000000     0.2058823529 1
    0.0000000000     0.0000000000     0.2156862745 1
    0.0000000000     0.0000000000     0.2254901961 1
    0.0000000000     0.0000000000     0.2352941176 1
    0.0000000000     0.0000000000     0.2450980392 1
    0.0000000000     0.0000000000     0.2549019608 1
    0.0000000000     0.0000000000     0.2647058824 1
    0.0000000000     0.0000000000     0.2745098039 1
    0.0000000000     0.0000000000     0.2843137255 1
    0.0000000000     0.0000000000     0.2941176471 1
    0.0000000000     0.0000000000     0.3039215686 1
    0.0000000000     0.0000000000     0.3137254902 1
    0.0000000000     0.0000000000     0.3235294118 1
    0.0000000000     0.0000000000     0.3333333333 1
    0.0000000000     0.0000000000     0.3431372549 1
    0.0000000000     0.0000000000     0.3529411765 1
    0.0000000000     0.0000000000     0.3627450980 1
    0.0000000000     0.0000000000     0.3725490196 1
    0.0000000000     0.0000000000     0.3823529412 1
    0.0000000000     0.0000000000     0.3921568627 1
    0.0000000000     0.0000000000     0.4019607843 1
    0.0000000000     0.0000000000     0.4117647059 1
    0.0000000000     0.0000000000     0.4215686275 1
    0.0000000000     0.0000000000     0.4313725490 1
    0.0000000000     0.0000000000     0.4411764706 1
    0.0000000000     0.0000000000     0.4509803922 1
    0.0000000000     0.0000000000     0.4607843137 1
    0.0000000000     0.0000000000     0.4705882353 1
    0.0000000000     0.0000000000     0.4803921569 1
    0.0000000000     0.0000000000     0.4901960784 1
    0.0000000000     0.0000000000     0.5000000000 1
    0.0277777778     0.0277777778     0.4722222222 1
    0.0555555556     0.0555555556     0.4444444444 1
    0.0833333333     0.0833333333     0.4166666667 1
    0.1111111111     0.1111111111     0.3888888889 1
    0.1388888889     0.1388888889     0.3611111111 1
    0.1666666667     0.1666666667     0.3333333333 1
    0.1944444444     0.1944444444     0.3055555556 1
    0.2222222222     0.2222222222     0.2777777778 1
    0.2500000000     0.2500000000     0.2500000000 1
    0.2430555556     0.2569444444     0.2430555556 1
    0.2361111111     0.2638888889     0.2361111111 1
    0.2291666667     0.2708333333     0.2291666667 1
    0.2222222222     0.2777777778     0.2222222222 1
    0.2152777778     0.2847222222     0.2152777778 1
    0.2083333333     0.2916666667     0.2083333333 1
    0.2013888889     0.2986111111     0.2013888889 1
    0.1944444444     0.3055555556     0.1944444444 1
    0.1875000000     0.3125000000     0.1875000000 1
    0.1805555556     0.3194444444     0.1805555556 1
    0.1736111111     0.3263888889     0.1736111111 1
    0.1666666667     0.3333333333     0.1666666667 1
    0.1597222222     0.3402777778     0.1597222222 1
    0.1527777778     0.3472222222     0.1527777778 1
    0.1458333333     0.3541666667     0.1458333333 1
    0.1388888889     0.3611111111     0.1388888889 1
    0.1319444444     0.3680555556     0.1319444444 1
    0.1250000000     0.3750000000     0.1250000000 1
    0.1180555556     0.3819444444     0.1180555556 1
    0.1111111111     0.3888888889     0.1111111111 1
    0.1041666667     0.3958333333     0.1041666667 1
    0.0972222222     0.4027777778     0.0972222222 1
    0.0902777778     0.4097222222     0.0902777778 1
    0.0833333333     0.4166666667     0.0833333333 1
    0.0763888889     0.4236111111     0.0763888889 1
    0.0694444444     0.4305555556     0.0694444444 1
    0.0625000000     0.4375000000     0.0625000000 1
    0.0555555556     0.4444444444     0.0555555556 1
    0.0486111111     0.4513888889     0.0486111111 1
    0.0416666667     0.4583333333     0.0416666667 1
    0.0347222222     0.4652777778     0.0347222222 1
    0.0277777778     0.4722222222     0.0277777778 1
    0.0208333333     0.4791666667     0.0208333333 1
    0.0138888889     0.4861111111     0.0138888889 1
    0.0069444444     0.4930555556     0.0069444444 1
    0.0000000000     0.5000000000     0.0000000000 1
    0.0000000000     0.4868421053     0.0000000000 1
    0.0000000000     0.4736842105     0.0000000000 1
    0.0000000000     0.4605263158     0.0000000000 1
    0.0000000000     0.4473684211     0.0000000000 1
    0.0000000000     0.4342105263     0.0000000000 1
    0.0000000000     0.4210526316     0.0000000000 1
    0.0000000000     0.4078947368     0.0000000000 1
    0.0000000000     0.3947368421     0.0000000000 1
    0.0000000000     0.3815789474     0.0000000000 1
    0.0000000000     0.3684210526     0.0000000000 1
    0.0000000000     0.3552631579     0.0000000000 1
    0.0000000000     0.3421052632     0.0000000000 1
    0.0000000000     0.3289473684     0.0000000000 1
    0.0000000000     0.3157894737     0.0000000000 1
    0.0000000000     0.3026315789     0.0000000000 1
    0.0000000000     0.2894736842     0.0000000000 1
    0.0000000000     0.2763157895     0.0000000000 1
    0.0000000000     0.2631578947     0.0000000000 1
    0.0000000000     0.2500000000     0.0000000000 1
    0.0000000000     0.2368421053     0.0000000000 1
    0.0000000000     0.2236842105     0.0000000000 1
    0.0000000000     0.2105263158     0.0000000000 1
    0.0000000000     0.1973684211     0.0000000000 1
    0.0000000000     0.1842105263     0.0000000000 1
    0.0000000000     0.1710526316     0.0000000000 1
    0.0000000000     0.1578947368     0.0000000000 1
    0.0000000000     0.1447368421     0.0000000000 1
    0.0000000000     0.1315789474     0.0000000000 1
    0.0000000000     0.1184210526     0.0000000000 1
    0.0000000000     0.1052631579     0.0000000000 1
    0.0000000000     0.0921052632     0.0000000000 1
    0.0000000000     0.0789473684     0.0000000000 1
    0.0000000000     0.0657894737     0.0000000000 1
    0.0000000000     0.0526315789     0.0000000000 1
    0.0000000000     0.0394736842     0.0000000000 1
    0.0000000000     0.0263157895     0.0000000000 1
    0.0000000000     0.0131578947     0.0000000000 1
    0.0000000000     0.0000000000     0.0000000000 1
    0.0250000000     0.0250000000    -0.0250000000 1
    0.0500000000     0.0500000000    -0.0500000000 1
    0.0750000000     0.0750000000    -0.0750000000 1
    0.1000000000     0.1000000000    -0.1000000000 1
    0.1250000000     0.1250000000    -0.1250000000 1
    0.1500000000     0.1500000000    -0.1500000000 1
    0.1750000000     0.1750000000    -0.1750000000 1
    0.2000000000     0.2000000000    -0.2000000000 1
    0.2250000000     0.2250000000    -0.2250000000 1
    0.2500000000     0.2500000000    -0.2500000000 1
    0.2750000000     0.2750000000    -0.2750000000 1
    0.3000000000     0.3000000000    -0.3000000000 1
    0.3250000000     0.3250000000    -0.3250000000 1
    0.3500000000     0.3500000000    -0.3500000000 1
    0.3750000000     0.3750000000    -0.3750000000 1
    0.4000000000     0.4000000000    -0.4000000000 1
    0.4250000000     0.4250000000    -0.4250000000 1
    0.4500000000     0.4500000000    -0.4500000000 1
    0.4750000000     0.4750000000    -0.4750000000 1
    0.5000000000     0.5000000000    -0.5000000000 1
    0.4930767730     0.5069232270    -0.4930767730 1
    0.4861535460     0.5138464540    -0.4861535460 1
    0.4792303190     0.5207696810    -0.4792303190 1
    0.4723070919     0.5276929081    -0.4723070919 1
    0.4653838649     0.5346161351    -0.4653838649 1
    0.4584606379     0.5415393621    -0.4584606379 1
    0.4515374109     0.5484625891    -0.4515374109 1
    0.4446141839     0.5553858161    -0.4446141839 1
    0.4376909569     0.5623090431    -0.4376909569 1
    0.4307677298     0.5692322702    -0.4307677298 1
    0.4238445028     0.5761554972    -0.4238445028 1
    0.4169212758     0.5830787242    -0.4169212758 1
    0.4099980488     0.5900019512    -0.4099980488 1
    0.4030748218     0.5969251782    -0.4030748218 1
    0.3961515948     0.6038484052    -0.3961515948 1
    0.3892283678     0.6107716322    -0.3892283678 1
    0.3823051407     0.6176948593    -0.3823051407 1
    0.3753819137     0.6246180863    -0.3753819137 1
    0.3684586867     0.6315413133    -0.3684586867 1
    0.3615354597     0.6384645403    -0.3615354597 1
    0.3546122327     0.6453877673    -0.3546122327 1
    0.3476890057     0.6523109943    -0.3476890057 1
    0.3407657787     0.6592342213    -0.3407657787 1
    0.3338425516     0.6661574484    -0.3338425516 1
    0.3269193246     0.6730806754    -0.3269193246 1
    0.3199960976     0.6800039024    -0.3199960976 1
    0.3130728706     0.6869271294    -0.3130728706 1
    0.3061496436     0.6938503564    -0.3061496436 1
    0.2992264166     0.7007735834    -0.2992264166 1
    0.2923031895     0.7076968105    -0.2923031895 1
    0.2853799625     0.7146200375    -0.2853799625 1
    0.2784567355     0.7215432645    -0.2784567355 1
    0.2715335085     0.7284664915    -0.2715335085 1
   -0.2715335085     0.2715335085     0.2715335085 1
   -0.2645711108     0.2645711108     0.2645711108 1
   -0.2576087132     0.2576087132     0.2576087132 1
   -0.2506463155     0.2506463155     0.2506463155 1
   -0.2436839179     0.2436839179     0.2436839179 1
   -0.2367215202     0.2367215202     0.2367215202 1
   -0.2297591226     0.2297591226     0.2297591226 1
   -0.2227967249     0.2227967249     0.2227967249 1
   -0.2158343273     0.2158343273     0.2158343273 1
   -0.2088719296     0.2088719296     0.2088719296 1
   -0.2019095320     0.2019095320     0.2019095320 1
   -0.1949471343     0.1949471343     0.1949471343 1
   -0.1879847367     0.1879847367     0.1879847367 1
   -0.1810223390     0.1810223390     0.1810223390 1
   -0.1740599413     0.1740599413     0.1740599413 1
   -0.1670975437     0.1670975437     0.1670975437 1
   -0.1601351460     0.1601351460     0.1601351460 1
   -0.1531727484     0.1531727484     0.1531727484 1
   -0.1462103507     0.1462103507     0.1462103507 1
   -0.1392479531     0.1392479531     0.1392479531 1
   -0.1322855554     0.1322855554     0.1322855554 1
   -0.1253231578     0.1253231578     0.1253231578 1
   -0.1183607601     0.1183607601     0.1183607601 1
   -0.1113983625     0.1113983625     0.1113983625 1
   -0.1044359648     0.1044359648     0.1044359648 1
   -0.0974735672     0.0974735672     0.0974735672 1
   -0.0905111695     0.0905111695     0.0905111695 1
   -0.0835487718     0.0835487718     0.0835487718 1
   -0.0765863742     0.0765863742     0.0765863742 1
   -0.0696239765     0.0696239765     0.0696239765 1
   -0.0626615789     0.0626615789     0.0626615789 1
   -0.0556991812     0.0556991812     0.0556991812 1
   -0.0487367836     0.0487367836     0.0487367836 1
   -0.0417743859     0.0417743859     0.0417743859 1
   -0.0348119883     0.0348119883     0.0348119883 1
   -0.0278495906     0.0278495906     0.0278495906 1
   -0.0208871930     0.0208871930     0.0208871930 1
   -0.0139247953     0.0139247953     0.0139247953 1
   -0.0069623977     0.0069623977     0.0069623977 1
    0.0000000000     0.0000000000     0.0000000000 1
    0.0000000000     0.0000000000     0.5000000000 1
   -0.0143556723     0.0143556723     0.5000000000 1
   -0.0287113447     0.0287113447     0.5000000000 1
   -0.0430670170     0.0430670170     0.5000000000 1
    0.5000000000     0.5000000000    -0.0430670170 1
    0.5000000000     0.5000000000    -0.0527889954 1
    0.5000000000     0.5000000000    -0.0625109737 1
    0.5000000000     0.5000000000    -0.0722329521 1
    0.5000000000     0.5000000000    -0.0819549305 1
    0.5000000000     0.5000000000    -0.0916769088 1
    0.5000000000     0.5000000000    -0.1013988872 1
    0.5000000000     0.5000000000    -0.1111208655 1
    0.5000000000     0.5000000000    -0.1208428439 1
    0.5000000000     0.5000000000    -0.1305648223 1
    0.5000000000     0.5000000000    -0.1402868006 1
    0.5000000000     0.5000000000    -0.1500087790 1
    0.5000000000     0.5000000000    -0.1597307573 1
    0.5000000000     0.5000000000    -0.1694527357 1
    0.5000000000     0.5000000000    -0.1791747141 1
    0.5000000000     0.5000000000    -0.1888966924 1
    0.5000000000     0.5000000000    -0.1986186708 1
    0.5000000000     0.5000000000    -0.2083406492 1
    0.5000000000     0.5000000000    -0.2180626275 1
    0.5000000000     0.5000000000    -0.2277846059 1
    0.5000000000     0.5000000000    -0.2375065842 1
    0.5000000000     0.5000000000    -0.2472285626 1
    0.5000000000     0.5000000000    -0.2569505410 1
    0.5000000000     0.5000000000    -0.2666725193 1
    0.5000000000     0.5000000000    -0.2763944977 1
    0.5000000000     0.5000000000    -0.2861164760 1
    0.5000000000     0.5000000000    -0.2958384544 1
    0.5000000000     0.5000000000    -0.3055604328 1
    0.5000000000     0.5000000000    -0.3152824111 1
    0.5000000000     0.5000000000    -0.3250043895 1
    0.5000000000     0.5000000000    -0.3347263679 1
    0.5000000000     0.5000000000    -0.3444483462 1
    0.5000000000     0.5000000000    -0.3541703246 1
    0.5000000000     0.5000000000    -0.3638923029 1
    0.5000000000     0.5000000000    -0.3736142813 1
    0.5000000000     0.5000000000    -0.3833362597 1
    0.5000000000     0.5000000000    -0.3930582380 1
    0.5000000000     0.5000000000    -0.4027802164 1
    0.5000000000     0.5000000000    -0.4125021947 1
    0.5000000000     0.5000000000    -0.4222241731 1
    0.5000000000     0.5000000000    -0.4319461515 1
    0.5000000000     0.5000000000    -0.4416681298 1
    0.5000000000     0.5000000000    -0.4513901082 1
    0.5000000000     0.5000000000    -0.4611120866 1
    0.5000000000     0.5000000000    -0.4708340649 1
    0.5000000000     0.5000000000    -0.4805560433 1
    0.5000000000     0.5000000000    -0.4902780216 1
    0.5000000000     0.5000000000    -0.5000000000 1
    0.0000000000     0.0000000000     0.0000000000 1
    0.0000000000     0.0000000000    -0.0098039216 1
    0.0000000000     0.0000000000    -0.0196078431 1
    0.0000000000     0.0000000000    -0.0294117647 1
    0.0000000000     0.0000000000    -0.0392156863 1
    0.0000000000     0.0000000000    -0.0490196078 1
    0.0000000000     0.0000000000    -0.0588235294 1
    0.0000000000     0.0000000000    -0.0686274510 1
    0.0000000000     0.0000000000    -0.0784313725 1
    0.0000000000     0.0000000000    -0.0882352941 1
    0.0000000000     0.0000000000    -0.0980392157 1
    0.0000000000     0.0000000000    -0.1078431373 1
    0.0000000000     0.0000000000    -0.1176470588 1
    0.0000000000     0.0000000000    -0.1274509804 1
    0.0000000000     0.0000000000    -0.1372549020 1
    0.0000000000     0.0000000000    -0.1470588235 1
    0.0000000000     0.0000000000    -0.1568627451 1
    0.0000000000     0.0000000000    -0.1666666667 1
    0.0000000000     0.0000000000    -0.1764705882 1
    0.0000000000     0.0000000000    -0.1862745098 1
    0.0000000000     0.0000000000    -0.1960784314 1
    0.0000000000     0.0000000000    -0.2058823529 1
    0.0000000000     0.0000000000    -0.2156862745 1
    0.0000000000     0.0000000000    -0.2254901961 1
    0.0000000000     0.0000000000    -0.2352941176 1
    0.0000000000     0.0000000000    -0.2450980392 1
    0.0000000000     0.0000000000    -0.2549019608 1
    0.0000000000     0.0000000000    -0.2647058824 1
    0.0000000000     0.0000000000    -0.2745098039 1
    0.0000000000     0.0000000000    -0.2843137255 1
    0.0000000000     0.0000000000    -0.2941176471 1
    0.0000000000     0.0000000000    -0.3039215686 1
    0.0000000000     0.0000000000    -0.3137254902 1
    0.0000000000     0.0000000000    -0.3235294118 1
    0.0000000000     0.0000000000    -0.3333333333 1
    0.0000000000     0.0000000000    -0.3431372549 1
    0.0000000000     0.0000000000    -0.3529411765 1
    0.0000000000     0.0000000000    -0.3627450980 1
    0.0000000000     0.0000000000    -0.3725490196 1
    0.0000000000     0.0000000000    -0.3823529412 1
    0.0000000000     0.0000000000    -0.3921568627 1
    0.0000000000     0.0000000000    -0.4019607843 1
    0.0000000000     0.0000000000    -0.4117647059 1
    0.0000000000     0.0000000000    -0.4215686275 1
    0.0000000000     0.0000000000    -0.4313725490 1
    0.0000000000     0.0000000000    -0.4411764706 1
    0.0000000000     0.0000000000    -0.4509803922 1
    0.0000000000     0.0000000000    -0.4607843137 1
    0.0000000000     0.0000000000    -0.4705882353 1
    0.0000000000     0.0000000000    -0.4803921569 1
    0.0000000000     0.0000000000    -0.4901960784 1
    0.0000000000     0.0000000000    -0.5000000000 1
   -0.0277777778    -0.0277777778    -0.4722222222 1
   -0.0555555556    -0.0555555556    -0.4444444444 1
   -0.0833333333    -0.0833333333    -0.4166666667 1
   -0.1111111111    -0.1111111111    -0.3888888889 1
   -0.1388888889    -0.1388888889    -0.3611111111 1
   -0.1666666667    -0.1666666667    -0.3333333333 1
   -0.1944444444    -0.1944444444    -0.3055555556 1
   -0.2222222222    -0.2222222222    -0.2777777778 1
   -0.2500000000    -0.2500000000    -0.2500000000 1
   -0.2430555556    -0.2569444444    -0.2430555556 1
   -0.2361111111    -0.2638888889    -0.2361111111 1
   -0.2291666667    -0.2708333333    -0.2291666667 1
   -0.2222222222    -0.2777777778    -0.2222222222 1
   -0.2152777778    -0.2847222222    -0.2152777778 1
   -0.2083333333    -0.2916666667    -0.2083333333 1
   -0.2013888889    -0.2986111111    -0.2013888889 1
   -0.1944444444    -0.3055555556    -0.1944444444 1
   -0.1875000000    -0.3125000000    -0.1875000000 1
   -0.1805555556    -0.3194444444    -0.1805555556 1
   -0.1736111111    -0.3263888889    -0.1736111111 1
   -0.1666666667    -0.3333333333    -0.1666666667 1
   -0.1597222222    -0.3402777778    -0.1597222222 1
   -0.1527777778    -0.3472222222    -0.1527777778 1
   -0.1458333333    -0.3541666667    -0.1458333333 1
   -0.1388888889    -0.3611111111    -0.1388888889 1
   -0.1319444444    -0.3680555556    -0.1319444444 1
   -0.1250000000    -0.3750000000    -0.1250000000 1
   -0.1180555556    -0.3819444444    -0.1180555556 1
   -0.1111111111    -0.3888888889    -0.1111111111 1
   -0.1041666667    -0.3958333333    -0.1041666667 1
   -0.0972222222    -0.4027777778    -0.0972222222 1
   -0.0902777778    -0.4097222222    -0.0902777778 1
   -0.0833333333    -0.4166666667    -0.0833333333 1
   -0.0763888889    -0.4236111111    -0.0763888889 1
   -0.0694444444    -0.4305555556    -0.0694444444 1
   -0.0625000000    -0.4375000000    -0.0625000000 1
   -0.0555555556    -0.4444444444    -0.0555555556 1
   -0.0486111111    -0.4513888889    -0.0486111111 1
   -0.0416666667    -0.4583333333    -0.0416666667 1
   -0.0347222222    -0.4652777778    -0.0347222222 1
   -0.0277777778    -0.4722222222    -0.0277777778 1
   -0.0208333333    -0.4791666667    -0.0208333333 1
   -0.0138888889    -0.4861111111    -0.0138888889 1
   -0.0069444444    -0.4930555556    -0.0069444444 1
    0.0000000000    -0.5000000000     0.0000000000 1
    0.0000000000    -0.4868421053     0.0000000000 1
    0.0000000000    -0.4736842105     0.0000000000 1
    0.0000000000    -0.4605263158     0.0000000000 1
    0.0000000000    -0.4473684211     0.0000000000 1
    0.0000000000    -0.4342105263     0.0000000000 1
    0.0000000000    -0.4210526316     0.0000000000 1
    0.0000000000    -0.4078947368     0.0000000000 1
    0.0000000000    -0.3947368421     0.0000000000 1
    0.0000000000    -0.3815789474     0.0000000000 1
    0.0000000000    -0.3684210526     0.0000000000 1
    0.0000000000    -0.3552631579     0.0000000000 1
    0.0000000000    -0.3421052632     0.0000000000 1
    0.0000000000    -0.3289473684     0.0000000000 1
    0.0000000000    -0.3157894737     0.0000000000 1
    0.0000000000    -0.3026315789     0.0000000000 1
    0.0000000000    -0.2894736842     0.0000000000 1
    0.0000000000    -0.2763157895     0.0000000000 1
    0.0000000000    -0.2631578947     0.0000000000 1
    0.0000000000    -0.2500000000     0.0000000000 1
    0.0000000000    -0.2368421053     0.0000000000 1
    0.0000000000    -0.2236842105     0.0000000000 1
    0.0000000000    -0.2105263158     0.0000000000 1
    0.0000000000    -0.1973684211     0.0000000000 1
    0.0000000000    -0.1842105263     0.0000000000 1
    0.0000000000    -0.1710526316     0.0000000000 1
    0.0000000000    -0.1578947368     0.0000000000 1
    0.0000000000    -0.1447368421     0.0000000000 1
    0.0000000000    -0.1315789474     0.0000000000 1
    0.0000000000    -0.1184210526     0.0000000000 1
    0.0000000000    -0.1052631579     0.0000000000 1
    0.0000000000    -0.0921052632     0.0000000000 1
    0.0000000000    -0.0789473684     0.0000000000 1
    0.0000000000    -0.0657894737     0.0000000000 1
    0.0000000000    -0.0526315789     0.0000000000 1
    0.0000000000    -0.0394736842     0.0000000000 1
    0.0000000000    -0.0263157895     0.0000000000 1
    0.0000000000    -0.0131578947     0.0000000000 1
    0.0000000000     0.0000000000     0.0000000000 1
   -0.0250000000    -0.0250000000     0.0250000000 1
   -0.0500000000    -0.0500000000     0.0500000000 1
   -0.0750000000    -0.0750000000     0.0750000000 1
   -0.1000000000    -0.1000000000     0.1000000000 1
   -0.1250000000    -0.1250000000     0.1250000000 1
   -0.1500000000    -0.1500000000     0.1500000000 1
   -0.1750000000    -0.1750000000     0.1750000000 1
   -0.2000000000    -0.2000000000     0.2000000000 1
   -0.2250000000    -0.2250000000     0.2250000000 1
   -0.2500000000    -0.2500000000     0.2500000000 1
   -0.2750000000    -0.2750000000     0.2750000000 1
   -0.3000000000    -0.3000000000     0.3000000000 1
   -0.3250000000    -0.3250000000     0.3250000000 1
   -0.3500000000    -0.3500000000     0.3500000000 1
   -0.3750000000    -0.3750000000     0.3750000000 1
   -0.4000000000    -0.4000000000     0.4000000000 1
   -0.4250000000    -0.4250000000     0.4250000000 1
   -0.4500000000    -0.4500000000     0.4500000000 1
   -0.4750000000    -0.4750000000     0.4750000000 1
   -0.5000000000    -0.5000000000     0.5000000000 1
   -0.4930767730    -0.5069232270     0.4930767730 1
   -0.4861535460    -0.5138464540     0.4861535460 1
   -0.4792303190    -0.5207696810     0.4792303190 1
   -0.4723070919    -0.5276929081     0.4723070919 1
   -0.4653838649    -0.5346161351     0.4653838649 1
   -0.4584606379    -0.5415393621     0.4584606379 1
   -0.4515374109    -0.5484625891     0.4515374109 1
   -0.4446141839    -0.5553858161     0.4446141839 1
   -0.4376909569    -0.5623090431     0.4376909569 1
   -0.4307677298    -0.5692322702     0.4307677298 1
   -0.4238445028    -0.5761554972     0.4238445028 1
   -0.4169212758    -0.5830787242     0.4169212758 1
   -0.4099980488    -0.5900019512     0.4099980488 1
   -0.4030748218    -0.5969251782     0.4030748218 1
   -0.3961515948    -0.6038484052     0.3961515948 1
   -0.3892283678    -0.6107716322     0.3892283678 1
   -0.3823051407    -0.6176948593     0.3823051407 1
   -0.3753819137    -0.6246180863     0.3753819137 1
   -0.3684586867    -0.6315413133     0.3684586867 1
   -0.3615354597    -0.6384645403     0.3615354597 1
   -0.3546122327    -0.6453877673     0.3546122327 1
   -0.3476890057    -0.6523109943     0.3476890057 1
   -0.3407657787    -0.6592342213     0.3407657787 1
   -0.3338425516    -0.6661574484     0.3338425516 1
   -0.3269193246    -0.6730806754     0.3269193246 1
   -0.3199960976    -0.6800039024     0.3199960976 1
   -0.3130728706    -0.6869271294     0.3130728706 1
   -0.3061496436    -0.6938503564     0.3061496436 1
   -0.2992264166    -0.7007735834     0.2992264166 1
   -0.2923031895    -0.7076968105     0.2923031895 1
   -0.2853799625    -0.7146200375     0.2853799625 1
   -0.2784567355    -0.7215432645     0.2784567355 1
   -0.2715335085    -0.7284664915     0.2715335085 1
    0.2715335085    -0.2715335085    -0.2715335085 1
    0.2645711108    -0.2645711108    -0.2645711108 1
    0.2576087132    -0.2576087132    -0.2576087132 1
    0.2506463155    -0.2506463155    -0.2506463155 1
    0.2436839179    -0.2436839179    -0.2436839179 1
    0.2367215202    -0.2367215202    -0.2367215202 1
    0.2297591226    -0.2297591226    -0.2297591226 1
    0.2227967249    -0.2227967249    -0.2227967249 1
    0.2158343273    -0.2158343273    -0.2158343273 1
    0.2088719296    -0.2088719296    -0.2088719296 1
    0.2019095320    -0.2019095320    -0.2019095320 1
    0.1949471343    -0.1949471343    -0.1949471343 1
    0.1879847367    -0.1879847367    -0.1879847367 1
    0.1810223390    -0.1810223390    -0.1810223390 1
    0.1740599413    -0.1740599413    -0.1740599413 1
    0.1670975437    -0.1670975437    -0.1670975437 1
    0.1601351460    -0.1601351460    -0.1601351460 1
    0.1531727484    -0.1531727484    -0.1531727484 1
    0.1462103507    -0.1462103507    -0.1462103507 1
    0.1392479531    -0.1392479531    -0.1392479531 1
    0.1322855554    -0.1322855554    -0.1322855554 1
    0.1253231578    -0.1253231578    -0.1253231578 1
    0.1183607601    -0.1183607601    -0.1183607601 1
    0.1113983625    -0.1113983625    -0.1113983625 1
    0.1044359648    -0.1044359648    -0.1044359648 1
    0.0974735672    -0.0974735672    -0.0974735672 1
    0.0905111695    -0.0905111695    -0.0905111695 1
    0.0835487718    -0.0835487718    -0.0835487718 1
    0.0765863742    -0.0765863742    -0.0765863742 1
    0.0696239765    -0.0696239765    -0.0696239765 1
    0.0626615789    -0.0626615789    -0.0626615789 1
    0.0556991812    -0.0556991812    -0.0556991812 1
    0.0487367836    -0.0487367836    -0.0487367836 1
    0.0417743859    -0.0417743859    -0.0417743859 1
    0.0348119883    -0.0348119883    -0.0348119883 1
    0.0278495906    -0.0278495906    -0.0278495906 1
    0.0208871930    -0.0208871930    -0.0208871930 1
    0.0139247953    -0.0139247953    -0.0139247953 1
    0.0069623977    -0.0069623977    -0.0069623977 1
    0.0000000000     0.0000000000     0.0000000000 1
    0.0000000000    -0.0000000000    -0.5000000000 1
    0.0143556723    -0.0143556723    -0.5000000000 1
    0.0287113447    -0.0287113447    -0.5000000000 1
    0.0430670170    -0.0430670170    -0.5000000000 1
   -0.5000000000    -0.5000000000     0.0430670170 1
   -0.5000000000    -0.5000000000     0.0527889954 1
   -0.5000000000    -0.5000000000     0.0625109737 1
   -0.5000000000    -0.5000000000     0.0722329521 1
   -0.5000000000    -0.5000000000     0.0819549305 1
   -0.5000000000    -0.5000000000     0.0916769088 1
   -0.5000000000    -0.5000000000     0.1013988872 1
   -0.5000000000    -0.5000000000     0.1111208655 1
   -0.5000000000    -0.5000000000     0.1208428439 1
   -0.5000000000    -0.5000000000     0.1305648223 1
   -0.5000000000    -0.5000000000     0.1402868006 1
   -0.5000000000    -0.5000000000     0.1500087790 1
   -0.5000000000    -0.5000000000     0.1597307573 1
   -0.5000000000    -0.5000000000     0.1694527357 1
   -0.5000000000    -0.5000000000     0.1791747141 1
   -0.5000000000    -0.5000000000     0.1888966924 1
   -0.5000000000    -0.5000000000     0.1986186708 1
   -0.5000000000    -0.5000000000     0.2083406492 1
   -0.5000000000    -0.5000000000     0.2180626275 1
   -0.5000000000    -0.5000000000     0.2277846059 1
   -0.5000000000    -0.5000000000     0.2375065842 1
   -0.5000000000    -0.5000000000     0.2472285626 1
   -0.5000000000    -0.5000000000     0.2569505410 1
   -0.5000000000    -0.5000000000     0.2666725193 1
   -0.5000000000    -0.5000000000     0.2763944977 1
   -0.5000000000    -0.5000000000     0.2861164760 1
   -0.5000000000    -0.5000000000     0.2958384544 1
   -0.5000000000    -0.5000000000     0.3055604328 1
   -0.5000000000    -0.5000000000     0.3152824111 1
   -0.5000000000    -0.5000000000     0.3250043895 1
   -0.5000000000    -0.5000000000     0.3347263679 1
   -0.5000000000    -0.5000000000     0.3444483462 1
   -0.5000000000    -0.5000000000     0.3541703246 1
   -0.5000000000    -0.5000000000     0.3638923029 1
   -0.5000000000    -0.5000000000     0.3736142813 1
   -0.5000000000    -0.5000000000     0.3833362597 1