num_bands         =   560     !! Number of the NSCF bands calcualted on VASP
num_wann          =   506     !! Number of Wannier centers to plot
iprint            =     5
guiding_centres   =  .true.   !! Use guiding centres during the minimisation, in order to avoid local minima.

# The frozen window is a window used for disentanglement procedure
dis_froz_min      =  -0.6     !! Minimum distance for the frozen window
dis_froz_max      =  12.8    !! Maximum distance for the frozen window
# The disentanglement window is a window to extract the target bands
dis_win_max       =  16.6     !! Maximum distance for the disentanglement window
dis_win_min       =  -0.6
dis_num_iter      =  2000     !! Number of iterations for disentanglement
num_iter          =  1000     !! Number of iterations for Wannier localization

!! Empty lines for readability

begin projections
  H  : l=0    !! s-orbitals
  Nb : l=2    !! d-orbitals
  P  : sp3    !! sp-orbitals
end projections

spinors = .true.

write_hr               = true

!! bandstructure with spin exp.
kpath              = true
kpath_task         = bands
kpath_num_points   = 200

!! Empty lines for readability

!! Begin the definition of the k-point path for band structure calculation
begin kpoint_path
Y 0.0000  0.5000  0.0000   G 0.0000  0.0000  0.0000
G 0.0000  0.0000  0.0000   X 0.5000  0.0000  0.0000
X 0.5000  0.0000  0.0000   M 0.5000  0.5000  0.0000
M 0.5000  0.5000  0.0000   G 0.0000  0.0000  0.0000
end kpoint_path

begin unit_cell_cart
     3.3583632     0.0000000     0.0000000
     0.0000000     3.3583632     0.0000000
     0.0000000     0.0000000    90.2924576
end unit_cell_cart

begin atoms_cart
H        1.6792001     3.3381480    81.3091134
Nb       1.6791943     1.6597835    80.1359964
Nb       0.0000062     1.6622042    77.3270177
Nb       0.0000045     3.3542586    74.4616796
Nb       1.6791780     3.3576586    71.6064889
Nb       1.6791765     1.6791910    68.7500364
Nb       3.3583565     1.6792078    65.8941461
Nb       3.3583559     0.0000333    63.0364962
Nb       1.6791701     0.0000369    60.1783179
Nb       1.6791693     1.6792227    57.3194894
Nb       3.3583546     1.6792223    54.4597916
Nb       3.3583566     0.0000359    51.5992634
Nb       1.6791796     0.0000341    48.7376537
Nb       1.6791810     1.6792127    45.8750283
Nb       0.0000008     1.6792120    43.0110239
Nb       0.0000011     0.0000292    40.1460933
Nb       1.6791826     0.0000266    37.2803488
Nb       1.6791825     1.6791940    34.4137090
Nb       0.0000006     1.6791982    31.5460785
Nb       0.0000004     0.0000258    28.6778359
Nb       1.6791818     0.0000245    25.8091497
Nb       1.6791816     1.6791816    22.9396838
Nb       0.0000000     1.6791816    20.0720974
Nb       0.0000000     0.0000000    17.2045098
Nb       1.6791816     0.0000000    14.3369222
Nb       1.6791816     1.6791816    11.4693334
Nb       0.0000000     1.6791816     8.6017458
Nb       0.0000000     0.0000000     5.7341588
Nb       1.6791816     0.0000000     2.8665709
P        0.0000121     3.3396287    79.2268229
P        1.6791872     3.3416237    76.3704880
P        1.6791860     1.6767386    73.5185771
P        3.3583593     1.6790180    70.6630153
P        3.3583577     0.0000323    67.8080661
P        1.6791740     0.0000324    64.9509363
P        1.6791742     1.6792172    62.0929429
P        3.3583510     1.6792207    59.2345912
P        3.3583508     0.0000414    56.3753078
P        1.6791735     0.0000411    53.5151981
P        1.6791756     1.6792171    50.6538918
P        3.3583617     1.6792153    47.7919380
P        3.3583629     0.0000307    44.9287245
P        1.6791826     0.0000305    42.0640020
P        1.6791827     1.6792105    39.1987774
P        0.0000010     1.6792055    36.3324622
P        0.0000009     0.0000065    33.4653856
P        1.6791821     0.0000169    30.5972310
P        1.6791820     1.6792081    27.7284761
P        0.0000000     1.6792046    24.8597037
P        0.0000000     0.0000000    21.9939229
P        1.6791816     0.0000000    19.1263365
P        1.6791816     1.6791816    16.2587489
P        0.0000000     1.6791816    13.3911613
P        0.0000000     0.0000000    10.5235725
P        1.6791816     0.0000000     7.6559849
P        1.6791816     1.6791816     4.7883973
P        0.0000000     1.6791816     1.9208097
end atoms_cart

mp_grid =     8     8     1

begin kpoints
      0.062500000000      0.062500000000      0.000000000000
      0.187500000000      0.062500000000      0.000000000000
      0.312500000000      0.062500000000      0.000000000000
      0.437500000000      0.062500000000      0.000000000000
     -0.437500000000      0.062500000000      0.000000000000
     -0.312500000000      0.062500000000      0.000000000000
     -0.187500000000      0.062500000000      0.000000000000
     -0.062500000000      0.062500000000      0.000000000000
      0.062500000000      0.187500000000      0.000000000000
      0.187500000000      0.187500000000      0.000000000000
      0.312500000000      0.187500000000      0.000000000000
      0.437500000000      0.187500000000      0.000000000000
     -0.437500000000      0.187500000000      0.000000000000
     -0.312500000000      0.187500000000      0.000000000000
     -0.187500000000      0.187500000000      0.000000000000
     -0.062500000000      0.187500000000      0.000000000000
      0.062500000000      0.312500000000      0.000000000000
      0.187500000000      0.312500000000      0.000000000000
      0.312500000000      0.312500000000      0.000000000000
      0.437500000000      0.312500000000      0.000000000000
     -0.437500000000      0.312500000000      0.000000000000
     -0.312500000000      0.312500000000      0.000000000000
     -0.187500000000      0.312500000000      0.000000000000
     -0.062500000000      0.312500000000      0.000000000000
      0.062500000000      0.437500000000      0.000000000000
      0.187500000000      0.437500000000      0.000000000000
      0.312500000000      0.437500000000      0.000000000000
      0.437500000000      0.437500000000      0.000000000000
     -0.437500000000      0.437500000000      0.000000000000
     -0.312500000000      0.437500000000      0.000000000000
     -0.187500000000      0.437500000000      0.000000000000
     -0.062500000000      0.437500000000      0.000000000000
      0.062500000000     -0.437500000000      0.000000000000
      0.187500000000     -0.437500000000      0.000000000000
      0.312500000000     -0.437500000000      0.000000000000
      0.437500000000     -0.437500000000      0.000000000000
     -0.437500000000     -0.437500000000      0.000000000000
     -0.312500000000     -0.437500000000      0.000000000000
     -0.187500000000     -0.437500000000      0.000000000000
     -0.062500000000     -0.437500000000      0.000000000000
      0.062500000000     -0.312500000000      0.000000000000
      0.187500000000     -0.312500000000      0.000000000000
      0.312500000000     -0.312500000000      0.000000000000
      0.437500000000     -0.312500000000      0.000000000000
     -0.437500000000     -0.312500000000      0.000000000000
     -0.312500000000     -0.312500000000      0.000000000000
     -0.187500000000     -0.312500000000      0.000000000000
     -0.062500000000     -0.312500000000      0.000000000000
      0.062500000000     -0.187500000000      0.000000000000
      0.187500000000     -0.187500000000      0.000000000000
      0.312500000000     -0.187500000000      0.000000000000
      0.437500000000     -0.187500000000      0.000000000000
     -0.437500000000     -0.187500000000      0.000000000000
     -0.312500000000     -0.187500000000      0.000000000000
     -0.187500000000     -0.187500000000      0.000000000000
     -0.062500000000     -0.187500000000      0.000000000000
      0.062500000000     -0.062500000000      0.000000000000
      0.187500000000     -0.062500000000      0.000000000000
      0.312500000000     -0.062500000000      0.000000000000
      0.437500000000     -0.062500000000      0.000000000000
     -0.437500000000     -0.062500000000      0.000000000000
     -0.312500000000     -0.062500000000      0.000000000000
     -0.187500000000     -0.062500000000      0.000000000000
     -0.062500000000     -0.062500000000      0.000000000000
end kpoints
