num_bands         =   504     !! Number of the NSCF bands calcualted on VASP
num_wann          =   504     !! Number of Wannier centers to plot
iprint            =     5
guiding_centres   =  .true.   !! Use guiding centres during the minimisation, in order to avoid local minima.

# The frozen window is a window used for disentanglement procedure
dis_froz_min      =  -0.8     !! Minimum distance for the frozen window
dis_froz_max      =  14.5     !! Maximum distance for the frozen window
# The disentanglement window is a window to extract the target bands
dis_win_max       =  14.5     !! Maximum distance for the disentanglement window
dis_win_min       =  -0.8
dis_num_iter      =  2000     !! Number of iterations for disentanglement
num_iter          =   500     !! Number of iterations for Wannier localization

!! Empty lines for readability

begin projections
  Nb : l=2     !! d-orbitals
  P  : l=0;l=1 !! sp-orbitals
end projections

spinors           = .true.
write_hr          = true

!! bandstructure with spin exp.
kpath              = true
kpath_task         = bands
kpath_num_points   = 200

!! Empty lines for readability

!! Begin the definition of the k-point path for band structure calculation
begin kpoint_path
Y 0.0000  0.5000  0.0000   G 0.0000  0.0000  0.0000
G 0.0000  0.0000  0.0000   X 0.5000  0.0000  0.0000
X 0.5000  0.0000  0.0000   M 0.5000  0.5000  0.0000
M 0.5000  0.5000  0.0000   G 0.0000  0.0000  0.0000
end kpoint_path

begin unit_cell_cart
     3.3583632     0.0000000     0.0000000
     0.0000000     3.3583632     0.0000000
     0.0000000     0.0000000    90.2924576
end unit_cell_cart

begin atoms_cart
Nb       1.6792384     1.6791395    80.0580167
Nb       3.3583604     1.6791322    77.3387585
Nb       3.3583484     3.3583606    74.4676010
Nb       1.6791751     0.0000050    71.6107776
Nb       1.6791768     1.6791875    68.7534983
Nb       3.3583578     1.6791884    65.8960756
Nb       3.3583553     0.0000120    63.0389478
Nb       1.6791681     0.0000131    60.1804621
Nb       1.6791676     1.6791952    57.3206403
Nb       3.3583561     1.6791942    54.4606310
Nb       3.3583590     0.0000070    51.6004498
Nb       1.6791818     0.0000047    48.7401374
Nb       1.6791828     1.6791835    45.8784943
Nb       0.0000014     1.6791828    43.0151934
Nb       0.0000014     0.0000008    40.1523426
Nb       1.6791827     0.0000009    37.2854942
Nb       1.6791828     1.6791822    34.4154411
Nb       0.0000009     1.6791823    31.5457770
Nb       0.0000008     0.0000005    28.6770097
Nb       1.6791819     0.0000004    25.8086535
Nb       1.6791816     1.6791816    22.9396838
Nb       0.0000000     1.6791816    20.0720974
Nb       0.0000000     0.0000000    17.2045098
Nb       1.6791816     0.0000000    14.3369222
Nb       1.6791816     1.6791816    11.4693334
Nb       0.0000000     1.6791816     8.6017458
Nb       0.0000000     0.0000000     5.7341588
Nb       1.6791816     0.0000000     2.8665709
P        0.0000658     3.3583037    79.2606764
P        1.6791672     3.3583256    76.3756698
P        1.6791717     1.6791782    73.5224975
P        3.3583562     1.6791904    70.6671017
P        3.3583595     0.0000061    67.8094226
P        1.6791757     0.0000073    64.9535084
P        1.6791729     1.6791941    62.0953505
P        3.3583491     1.6791951    59.2364569
P        3.3583495     0.0000136    56.3761391
P        1.6791754     0.0000123    53.5162570
P        1.6791783     1.6791878    50.6556352
P        0.0000007     1.6791859    47.7955090
P        0.0000014     0.0000017    44.9319532
P        1.6791830     0.0000011    42.0693418
P        1.6791828     1.6791825    39.2052490
P        0.0000012     1.6791823    36.3356672
P        0.0000010     0.0000007    33.4653314
P        1.6791824     0.0000006    30.5962090
P        1.6791823     1.6791820    27.7276637
P        0.0000002     1.6791819    24.8594506
P        0.0000000     0.0000000    21.9939229
P        1.6791816     0.0000000    19.1263365
P        1.6791816     1.6791816    16.2587489
P        0.0000000     1.6791816    13.3911613
P        0.0000000     0.0000000    10.5235725
P        1.6791816     0.0000000     7.6559849
P        1.6791816     1.6791816     4.7883973
P        0.0000000     1.6791816     1.9208097
end atoms_cart

mp_grid =     8     8     1

begin kpoints
      0.062500000000      0.062500000000      0.000000000000
      0.187500000000      0.062500000000      0.000000000000
      0.312500000000      0.062500000000      0.000000000000
      0.437500000000      0.062500000000      0.000000000000
     -0.437500000000      0.062500000000      0.000000000000
     -0.312500000000      0.062500000000      0.000000000000
     -0.187500000000      0.062500000000      0.000000000000
     -0.062500000000      0.062500000000      0.000000000000
      0.062500000000      0.187500000000      0.000000000000
      0.187500000000      0.187500000000      0.000000000000
      0.312500000000      0.187500000000      0.000000000000
      0.437500000000      0.187500000000      0.000000000000
     -0.437500000000      0.187500000000      0.000000000000
     -0.312500000000      0.187500000000      0.000000000000
     -0.187500000000      0.187500000000      0.000000000000
     -0.062500000000      0.187500000000      0.000000000000
      0.062500000000      0.312500000000      0.000000000000
      0.187500000000      0.312500000000      0.000000000000
      0.312500000000      0.312500000000      0.000000000000
      0.437500000000      0.312500000000      0.000000000000
     -0.437500000000      0.312500000000      0.000000000000
     -0.312500000000      0.312500000000      0.000000000000
     -0.187500000000      0.312500000000      0.000000000000
     -0.062500000000      0.312500000000      0.000000000000
      0.062500000000      0.437500000000      0.000000000000
      0.187500000000      0.437500000000      0.000000000000
      0.312500000000      0.437500000000      0.000000000000
      0.437500000000      0.437500000000      0.000000000000
     -0.437500000000      0.437500000000      0.000000000000
     -0.312500000000      0.437500000000      0.000000000000
     -0.187500000000      0.437500000000      0.000000000000
     -0.062500000000      0.437500000000      0.000000000000
      0.062500000000     -0.437500000000      0.000000000000
      0.187500000000     -0.437500000000      0.000000000000
      0.312500000000     -0.437500000000      0.000000000000
      0.437500000000     -0.437500000000      0.000000000000
     -0.437500000000     -0.437500000000      0.000000000000
     -0.312500000000     -0.437500000000      0.000000000000
     -0.187500000000     -0.437500000000      0.000000000000
     -0.062500000000     -0.437500000000      0.000000000000
      0.062500000000     -0.312500000000      0.000000000000
      0.187500000000     -0.312500000000      0.000000000000
      0.312500000000     -0.312500000000      0.000000000000
      0.437500000000     -0.312500000000      0.000000000000
     -0.437500000000     -0.312500000000      0.000000000000
     -0.312500000000     -0.312500000000      0.000000000000
     -0.187500000000     -0.312500000000      0.000000000000
     -0.062500000000     -0.312500000000      0.000000000000
      0.062500000000     -0.187500000000      0.000000000000
      0.187500000000     -0.187500000000      0.000000000000
      0.312500000000     -0.187500000000      0.000000000000
      0.437500000000     -0.187500000000      0.000000000000
     -0.437500000000     -0.187500000000      0.000000000000
     -0.312500000000     -0.187500000000      0.000000000000
     -0.187500000000     -0.187500000000      0.000000000000
     -0.062500000000     -0.187500000000      0.000000000000
      0.062500000000     -0.062500000000      0.000000000000
      0.187500000000     -0.062500000000      0.000000000000
      0.312500000000     -0.062500000000      0.000000000000
      0.437500000000     -0.062500000000      0.000000000000
     -0.437500000000     -0.062500000000      0.000000000000
     -0.312500000000     -0.062500000000      0.000000000000
     -0.187500000000     -0.062500000000      0.000000000000
     -0.062500000000     -0.062500000000      0.000000000000
end kpoints
