Gamma to M with denser points
   70
Line-Mode
Reciprocal
   0.5000000000   0.5000000000   0.0000000000     M
   0.0000000000   0.0000000000   0.0000000000     Gamma
